5219
Lattice="65.210040 0 0 0 460.827146 0 0 0 3.840226" Origin="-57.675556 0 0" Properties=species:S:1:pos:R:3:disp:R:3:section:I:1 pbc="F T T" frame="x=[001] outward normal, y=[1-10], z=beam [110]; A"
Si   -52.959032    67.233594     0.000000  -0.007757   0.029636   0.000000 1
Si   -52.959110    71.067987     0.000000  -0.007835   0.023802   0.000000 1
Si   -55.674759    69.151910     1.920113  -0.008034   0.027838   0.000000 1
Si   -51.601220    69.150253     0.000000  -0.007670   0.026181   0.000000 1
Si   -47.527605    67.231604     0.000000  -0.007230   0.027645   0.000000 1
Si   -47.527667    71.065774     0.000000  -0.007292   0.021589   0.000000 1
Si   -50.243364    69.149722     1.920113  -0.007539   0.025650   0.000000 1
Si   -46.169765    69.148196     0.000000  -0.007115   0.024124   0.000000 1
Si   -42.096099    67.229788     0.000000  -0.006624   0.025829   0.000000 1
Si   -42.096148    71.063748     0.000000  -0.006673   0.019563   0.000000 1
Si   -44.811890    69.147710     1.920113  -0.006965   0.023638   0.000000 1
Si   -40.738234    69.146322     0.000000  -0.006484   0.022250   0.000000 1
Si   -36.664520    67.228153     0.000000  -0.005945   0.024194   0.000000 1
Si   -36.664556    71.061917     0.000000  -0.005981   0.017732   0.000000 1
Si   -39.380340    69.145883     1.920113  -0.006315   0.021811   0.000000 1
Si   -35.306631    69.144637     0.000000  -0.005781   0.020565   0.000000 1
Si   -31.232873    67.226704     0.000000  -0.005198   0.022745   0.000000 1
Si   -31.232900    71.060288     0.000000  -0.005225   0.016103   0.000000 1
Si   -33.948720    69.144247     1.920113  -0.005595   0.020175   0.000000 1
Si   -29.874964    69.143149     0.000000  -0.005014   0.019077   0.000000 1
Si   -25.801165    67.225447     0.000000  -0.004390   0.021488   0.000000 1
Si   -25.801184    71.058870     0.000000  -0.004409   0.014685   0.000000 1
Si   -28.517038    69.142808     1.920113  -0.004813   0.018736   0.000000 1
Si   -24.443239    69.141862     0.000000  -0.004189   0.017790   0.000000 1
Si   -20.369404    67.224385     0.000000  -0.003529   0.020426   0.000000 1
Si   -20.369418    71.057668     0.000000  -0.003543   0.013483   0.000000 1
Si   -23.085299    69.141573     1.920113  -0.003974   0.017501   0.000000 1
Si   -19.011464    69.140782     0.000000  -0.003314   0.016710   0.000000 1
Si   -14.937599    67.223521     0.000000  -0.002624   0.019562   0.000000 1
Si   -14.937610    71.056687     0.000000  -0.002635   0.012502   0.000000 1
Si   -17.653513    69.140545     1.920113  -0.003088   0.016473   0.000000 1
Si   -13.579648    69.139913     0.000000  -0.002398   0.015841   0.000000 1
Si    -9.505759    67.222857     0.000000  -0.001684   0.018898   0.000000 1
Si    -9.505769    71.055932     0.000000  -0.001694   0.011747   0.000000 1
Si   -12.221688    69.139729     1.920113  -0.002163   0.015657   0.000000 1
Si    -8.147800    69.139258     0.000000  -0.001450   0.015186   0.000000 1
Si    -4.073895    67.222396     0.000000  -0.000720   0.018437   0.000000 1
Si    -4.073905    71.055406     0.000000  -0.000730   0.011221   0.000000 1
Si    -6.789835    69.139128     1.920113  -0.001210   0.015056   0.000000 1
Si    -2.715932    69.138818     0.000000  -0.000482   0.014747   0.000000 1
Si    -1.357963    69.138743     1.920113  -0.000238   0.014671   0.000000 1
Si   -54.316876    67.234118     1.920113  -0.007876   0.030160   0.000000 1
Si   -55.674671    65.317387     1.920113  -0.007946   0.033542   0.000000 1
Si   -51.601145    65.315900     0.000000  -0.007595   0.032054   0.000000 1
Si   -48.885469    67.232085     1.920113  -0.007369   0.028127   0.000000 1
Si   -50.243293    65.315424     1.920113  -0.007468   0.031579   0.000000 1
Si   -46.169705    65.314061     0.000000  -0.007055   0.030215   0.000000 1
Si   -43.453983    67.230225     1.920113  -0.006783   0.026266   0.000000 1
Si   -44.811833    65.313627     1.920113  -0.006908   0.029781   0.000000 1
Si   -40.738187    65.312392     0.000000  -0.006437   0.028546   0.000000 1
Si   -38.022421    67.228544     1.920113  -0.006121   0.024586   0.000000 1
Si   -39.380296    65.312002     1.920113  -0.006271   0.028156   0.000000 1
Si   -35.306596    65.310898     0.000000  -0.005746   0.027052   0.000000 1
Si   -32.590790    67.227049     1.920113  -0.005390   0.023090   0.000000 1
Si   -33.948687    65.310552     1.920113  -0.005562   0.026706   0.000000 1
Si   -29.874937    65.309583     0.000000  -0.004987   0.025737   0.000000 1
Si   -27.159097    67.225743     1.920113  -0.004597   0.021784   0.000000 1
Si   -28.517013    65.309283     1.920113  -0.004788   0.025437   0.000000 1
Si   -24.443219    65.308451     0.000000  -0.004169   0.024606   0.000000 1
Si   -21.727348    67.224632     1.920113  -0.003748   0.020673   0.000000 1
Si   -23.085281    65.308197     1.920113  -0.003956   0.024352   0.000000 1
Si   -19.011448    65.307505     0.000000  -0.003298   0.023659   0.000000 1
Si   -16.295554    67.223718     1.920113  -0.002854   0.019759   0.000000 1
Si   -17.653498    65.307297     1.920113  -0.003073   0.023452   0.000000 1
Si   -13.579634    65.306745     0.000000  -0.002384   0.022899   0.000000 1
Si   -10.863722    67.223004     1.920113  -0.001922   0.019045   0.000000 1
Si   -12.221676    65.306585     1.920113  -0.002151   0.022739   0.000000 1
Si    -8.147788    65.306174     0.000000  -0.001438   0.022328   0.000000 1
Si    -5.431863    67.222492     1.920113  -0.000963   0.018533   0.000000 1
Si    -6.789822    65.306061     1.920113  -0.001197   0.022215   0.000000 1
Si    -2.715919    65.305793     0.000000  -0.000469   0.021947   0.000000 1
Si     0.000012    67.222184     1.920113   0.000012   0.018225   0.000000 1
Si    -1.357950    65.305727     1.920113  -0.000225   0.021881   0.000000 1
Si   -52.959186    74.902344     0.000000  -0.007911   0.017933   0.000000 1
Si   -52.959258    78.736667     0.000000  -0.007983   0.012029   0.000000 1
Si   -55.674925    76.820858     1.920113  -0.008200   0.016334   0.000000 1
Si   -51.601363    76.818853     0.000000  -0.007813   0.014329   0.000000 1
Si   -47.527727    74.899906     0.000000  -0.007352   0.015495   0.000000 1
Si   -47.527784    78.734000     0.000000  -0.007409   0.009362   0.000000 1
Si   -50.243499    76.818209     1.920113  -0.007674   0.013685   0.000000 1
Si   -46.169878    76.816351     0.000000  -0.007228   0.011827   0.000000 1
Si   -42.096194    74.897667     0.000000  -0.006719   0.013255   0.000000 1
Si   -42.096237    78.731542     0.000000  -0.006762   0.006905   0.000000 1
Si   -44.811995    76.815758     1.920113  -0.007070   0.011233   0.000000 1
Si   -40.738320    76.814056     0.000000  -0.006570   0.009532   0.000000 1
Si   -36.664591    74.895636     0.000000  -0.006016   0.011225   0.000000 1
Si   -36.664622    78.729309     0.000000  -0.006047   0.004671   0.000000 1
Si   -39.380419    76.813516     1.920113  -0.006394   0.008992   0.000000 1
Si   -35.306694    76.811981     0.000000  -0.005844   0.007456   0.000000 1
Si   -31.232924    74.893825     0.000000  -0.005249   0.009414   0.000000 1
Si   -31.232944    78.727312     0.000000  -0.005269   0.002675   0.000000 1
Si   -33.948778    76.811497     1.920113  -0.005653   0.006973   0.000000 1
Si   -29.875008    76.810136     0.000000  -0.005058   0.005611   0.000000 1
Si   -25.801200    74.892243     0.000000  -0.004425   0.007832   0.000000 1
Si   -25.801213    78.725564     0.000000  -0.004438   0.000926   0.000000 1
Si   -28.517077    76.809712     1.920113  -0.004852   0.005188   0.000000 1
Si   -24.443268    76.808532     0.000000  -0.004218   0.004008   0.000000 1
Si   -20.369429    74.890899     0.000000  -0.003554   0.006487   0.000000 1
Si   -20.369435    78.724075     0.000000  -0.003560  -0.000562   0.000000 1
Si   -23.085325    76.808170     1.920113  -0.004000   0.003646   0.000000 1
Si   -19.011482    76.807180     0.000000  -0.003332   0.002655   0.000000 1
Si   -14.937616    74.889799     0.000000  -0.002641   0.005388   0.000000 1
Si   -14.937618    78.722855     0.000000  -0.002643  -0.001782   0.000000 1
Si   -17.653529    76.806882     1.920113  -0.003104   0.002357   0.000000 1
Si   -13.579659    76.806086     0.000000  -0.002409   0.001561   0.000000 1
Si    -9.505773    74.888951     0.000000  -0.001698   0.004540   0.000000 1
Si    -9.505772    78.721913     0.000000  -0.001697  -0.002725   0.000000 1
Si   -12.221699    76.805853     1.920113  -0.002174   0.001329   0.000000 1
Si    -8.147808    76.805257     0.000000  -0.001458   0.000733   0.000000 1
Si    -4.073908    74.888359     0.000000  -0.000733   0.003948   0.000000 1
Si    -4.073905    78.721253     0.000000  -0.000730  -0.003384   0.000000 1
Si    -6.789842    76.805092     1.920113  -0.001217   0.000568   0.000000 1
Si    -2.715939    76.804700     0.000000  -0.000489   0.000176   0.000000 1
Si    -1.357970    76.804604     1.920113  -0.000245   0.000079   0.000000 1
Si   -54.316959    71.068568     1.920113  -0.007959   0.024383   0.000000 1
Si   -54.317038    74.902983     1.920113  -0.008038   0.018572   0.000000 1
Si   -55.674844    72.986401     1.920113  -0.008119   0.022102   0.000000 1
Si   -51.601293    72.984571     0.000000  -0.007743   0.020273   0.000000 1
Si   -48.885536    71.066310     1.920113  -0.007436   0.022125   0.000000 1
Si   -48.885599    74.900498     1.920113  -0.007499   0.016087   0.000000 1
Si   -50.243433    72.983984     1.920113  -0.007608   0.019686   0.000000 1
Si   -46.169823    72.982294     0.000000  -0.007173   0.017995   0.000000 1
Si   -43.454035    71.064237     1.920113  -0.006835   0.020052   0.000000 1
Si   -43.454084    74.898207     1.920113  -0.006884   0.013796   0.000000 1
Si   -44.811944    72.981754     1.920113  -0.007019   0.017456   0.000000 1
Si   -40.738278    72.980211     0.000000  -0.006528   0.015912   0.000000 1
Si   -38.022461    71.062356     1.920113  -0.006161   0.018171   0.000000 1
Si   -38.022498    74.896123     1.920113  -0.006198   0.011712   0.000000 1
Si   -39.380381    72.979721     1.920113  -0.006356   0.015423   0.000000 1
Si   -35.306664    72.978332     0.000000  -0.005814   0.014034   0.000000 1
Si   -32.590820    71.060676     1.920113  -0.005420   0.016491   0.000000 1
Si   -32.590846    74.894256     1.920113  -0.005446   0.009845   0.000000 1
Si   -33.948751    72.977895     1.920113  -0.005626   0.013597   0.000000 1
Si   -29.874987    72.976667     0.000000  -0.005037   0.012369   0.000000 1
Si   -27.159118    71.059205     1.920113  -0.004618   0.015020   0.000000 1
Si   -27.159136    74.892616     1.920113  -0.004636   0.008205   0.000000 1
Si   -28.517059    72.976285     1.920113  -0.004834   0.011987   0.000000 1
Si   -24.443255    72.975223     0.000000  -0.004205   0.010925   0.000000 1
Si   -21.727364    71.057948     1.920113  -0.003764   0.013763   0.000000 1
Si   -21.727376    74.891212     1.920113  -0.003776   0.006801   0.000000 1
Si   -23.085314    72.974898     1.920113  -0.003989   0.010600   0.000000 1
Si   -19.011475    72.974008     0.000000  -0.003325   0.009710   0.000000 1
Si   -16.295565    71.056911     1.920113  -0.002865   0.012726   0.000000 1
Si   -16.295573    74.890051     1.920113  -0.002873   0.005640   0.000000 1
Si   -17.653523    72.973741     1.920113  -0.003098   0.009442   0.000000 1
Si   -13.579656    72.973027     0.000000  -0.002406   0.008729   0.000000 1
Si   -10.863732    71.056099     1.920113  -0.001932   0.011914   0.000000 1
Si   -10.863736    74.889139     1.920113  -0.001936   0.004728   0.000000 1
Si   -12.221696    72.972819     1.920113  -0.002171   0.008521   0.000000 1
Si    -8.147807    72.972286     0.000000  -0.001457   0.007988   0.000000 1
Si    -5.431872    71.055516     1.920113  -0.000972   0.011331   0.000000 1
Si    -5.431876    74.888483     1.920113  -0.000976   0.004072   0.000000 1
Si    -6.789842    72.972139     1.920113  -0.001217   0.007841   0.000000 1
Si    -2.715939    72.971788     0.000000  -0.000489   0.007490   0.000000 1
Si     0.000002    71.055163     1.920113   0.000002   0.010978   0.000000 1
Si    -0.000001    74.888085     1.920113  -0.000001   0.003674   0.000000 1
Si    -1.357970    72.971702     1.920113  -0.000245   0.007404   0.000000 1
Si   -52.959327    82.570953     0.000000  -0.008052   0.006089   0.000000 1
Si   -52.959392    86.405202     0.000000  -0.008117   0.000112   0.000000 1
Si   -55.675079    84.489671     1.920113  -0.008354   0.004694   0.000000 1
Si   -51.601493    84.487307     0.000000  -0.007943   0.002330   0.000000 1
Si   -47.527839    82.568052     0.000000  -0.007464   0.003189   0.000000 1
Si   -47.527889    86.402064     0.000000  -0.007514  -0.003026   0.000000 1
Si   -50.243622    84.486545     1.920113  -0.007797   0.001569   0.000000 1
Si   -46.169979    84.484344     0.000000  -0.007329  -0.000633   0.000000 1
Si   -42.096277    82.565374     0.000000  -0.006802   0.000511   0.000000 1
Si   -42.096314    86.399161     0.000000  -0.006839  -0.005929   0.000000 1
Si   -44.812089    84.483639     1.920113  -0.007164  -0.001338   0.000000 1
Si   -40.738394    84.481613     0.000000  -0.006644  -0.003363   0.000000 1
Si   -36.664649    82.562934     0.000000  -0.006074  -0.001929   0.000000 1
Si   -36.664674    86.396511     0.000000  -0.006099  -0.008579   0.000000 1
Si   -39.380487    84.480969     1.920113  -0.006462  -0.004007   0.000000 1
Si   -35.306744    84.479133     0.000000  -0.005894  -0.005844   0.000000 1
Si   -31.232962    82.560749     0.000000  -0.005287  -0.004115   0.000000 1
Si   -31.232975    86.394133     0.000000  -0.005300  -0.010957   0.000000 1
Si   -33.948822    84.478554     1.920113  -0.005697  -0.006423   0.000000 1
Si   -29.875037    84.476920     0.000000  -0.005087  -0.008057   0.000000 1
Si   -25.801221    82.558831     0.000000  -0.004446  -0.006033   0.000000 1
Si   -25.801226    86.392043     0.000000  -0.004451  -0.013047   0.000000 1
Si   -28.517102    84.476410     1.920113  -0.004877  -0.008567   0.000000 1
Si   -24.443281    84.474989     0.000000  -0.004231  -0.009988   0.000000 1
Si   -20.369436    82.557195     0.000000  -0.003561  -0.007668   0.000000 1
Si   -20.369433    86.390257     0.000000  -0.003558  -0.014833   0.000000 1
Si   -23.085334    84.474551     1.920113  -0.004009  -0.010425   0.000000 1
Si   -19.011482    84.473353     0.000000  -0.003332  -0.011623   0.000000 1
Si   -14.937614    82.555853     0.000000  -0.002639  -0.009011   0.000000 1
Si   -14.937605    86.388790     0.000000  -0.002630  -0.016300   0.000000 1
Si   -17.653527    84.472992     1.920113  -0.003102  -0.011984   0.000000 1
Si   -13.579650    84.472027     0.000000  -0.002400  -0.012950   0.000000 1
Si    -9.505764    82.554814     0.000000  -0.001689  -0.010050   0.000000 1
Si    -9.505750    86.387653     0.000000  -0.001675  -0.017437   0.000000 1
Si   -12.221687    84.471745     1.920113  -0.002162  -0.013232   0.000000 1
Si    -8.147792    84.471020     0.000000  -0.001442  -0.013957   0.000000 1
Si    -4.073895    82.554087     0.000000  -0.000720  -0.010777   0.000000 1
Si    -4.073877    86.386856     0.000000  -0.000702  -0.018234   0.000000 1
Si    -6.789824    84.470819     1.920113  -0.001199  -0.014158   0.000000 1
Si    -2.715917    84.470341     0.000000  -0.000467  -0.014636   0.000000 1
Si    -1.357947    84.470223     1.920113  -0.000222  -0.014754   0.000000 1
Si   -54.317114    78.737364     1.920113  -0.008114   0.012727   0.000000 1
Si   -54.317187    82.571710     1.920113  -0.008187   0.006847   0.000000 1
Si   -55.675004    80.655282     1.920113  -0.008279   0.010531   0.000000 1
Si   -51.601430    80.653099     0.000000  -0.007880   0.008348   0.000000 1
Si   -48.885660    78.734647     1.920113  -0.007560   0.010010   0.000000 1
Si   -48.885718    82.568757     1.920113  -0.007618   0.003894   0.000000 1
Si   -50.243562    80.652397     1.920113  -0.007737   0.007646   0.000000 1
Si   -46.169930    80.650368     0.000000  -0.007280   0.005618   0.000000 1
Si   -43.454131    78.732136     1.920113  -0.006931   0.007499   0.000000 1
Si   -43.454174    82.566022     1.920113  -0.006974   0.001158   0.000000 1
Si   -44.812044    80.649720     1.920113  -0.007119   0.004969   0.000000 1
Si   -40.738358    80.647858     0.000000  -0.006608   0.003107   0.000000 1
Si   -38.022531    78.729846     1.920113  -0.006231   0.005208   0.000000 1
Si   -38.022562    82.563521     1.920113  -0.006262  -0.001343   0.000000 1
Si   -39.380455    80.647266     1.920113  -0.006430   0.002515   0.000000 1
Si   -35.306721    80.645581     0.000000  -0.005871   0.000831   0.000000 1
Si   -32.590869    78.727788     1.920113  -0.005469   0.003151   0.000000 1
Si   -32.590889    82.561270     1.920113  -0.005489  -0.003593   0.000000 1
Si   -33.948802    80.645051     1.920113  -0.005677   0.000300   0.000000 1
Si   -29.875024    80.643554     0.000000  -0.005074  -0.001197   0.000000 1
Si   -27.159150    78.725977     1.920113  -0.004650   0.001340   0.000000 1
Si   -27.159161    82.559285     1.920113  -0.004661  -0.005579   0.000000 1
Si   -28.517092    80.643088     1.920113  -0.004867  -0.001663   0.000000 1
Si   -24.443276    80.641788     0.000000  -0.004226  -0.002962   0.000000 1
Si   -21.727383    78.724422     1.920113  -0.003783  -0.000215   0.000000 1
Si   -21.727386    82.557577     1.920113  -0.003786  -0.007286   0.000000 1
Si   -23.085332    80.641389     1.920113  -0.004007  -0.003362   0.000000 1
Si   -19.011484    80.640295     0.000000  -0.003334  -0.004455   0.000000 1
Si   -16.295575    78.723135     1.920113  -0.002875  -0.001503   0.000000 1
Si   -16.295573    82.556160     1.920113  -0.002873  -0.008703   0.000000 1
Si   -17.653530    80.639966     1.920113  -0.003105  -0.004784   0.000000 1
Si   -13.579657    80.639086     0.000000  -0.002407  -0.005664   0.000000 1
Si   -10.863736    78.722122     1.920113  -0.001936  -0.002516   0.000000 1
Si   -10.863729    82.555045     1.920113  -0.001929  -0.009819   0.000000 1
Si   -12.221696    80.638829     1.920113  -0.002171  -0.005921   0.000000 1
Si    -8.147803    80.638169     0.000000  -0.001453  -0.006581   0.000000 1
Si    -5.431873    78.721391     1.920113  -0.000973  -0.003246   0.000000 1
Si    -5.431864    82.554239     1.920113  -0.000964  -0.010625   0.000000 1
Si    -6.789837    80.637987     1.920113  -0.001212  -0.006764   0.000000 1
Si    -2.715932    80.637552     0.000000  -0.000482  -0.007199   0.000000 1
Si     0.000003    78.720948     1.920113   0.000003  -0.003689   0.000000 1
Si     0.000015    82.553749     1.920113   0.000015  -0.011114   0.000000 1
Si    -1.357962    80.637445     1.920113  -0.000237  -0.007306   0.000000 1
Si   -52.959454    90.239413     0.000000  -0.008179  -0.005903   0.000000 1
Si   -52.959511    94.073586     0.000000  -0.008236  -0.011956   0.000000 1
Si   -55.675217    92.158344     1.920113  -0.008492  -0.007085   0.000000 1
Si   -51.601609    92.155607     0.000000  -0.008059  -0.009823   0.000000 1
Si   -47.527936    90.236034     0.000000  -0.007561  -0.009282   0.000000 1
Si   -47.527980    94.069960     0.000000  -0.007605  -0.015583   0.000000 1
Si   -50.243730    92.154723     1.920113  -0.007905  -0.010706   0.000000 1
Si   -46.170066    92.152165     0.000000  -0.007416  -0.013264   0.000000 1
Si   -42.096348    90.232901     0.000000  -0.006873  -0.012415   0.000000 1
Si   -42.096378    94.066593     0.000000  -0.006903  -0.018949   0.000000 1
Si   -44.812169    92.151345     1.920113  -0.007244  -0.014085   0.000000 1
Si   -40.738454    92.148983     0.000000  -0.006704  -0.016446   0.000000 1
Si   -36.664695    90.230037     0.000000  -0.006120  -0.015279   0.000000 1
Si   -36.664712    94.063511     0.000000  -0.006137  -0.022031   0.000000 1
Si   -39.380541    92.148231     1.920113  -0.006516  -0.017198   0.000000 1
Si   -35.306780    92.146083     0.000000  -0.005930  -0.019346   0.000000 1
Si   -31.232985    90.227463     0.000000  -0.005310  -0.017854   0.000000 1
Si   -31.232990    94.060736     0.000000  -0.005315  -0.024806   0.000000 1
Si   -33.948853    92.145405     1.920113  -0.005728  -0.020024   0.000000 1
Si   -29.875051    92.143487     0.000000  -0.005101  -0.021942   0.000000 1
Si   -25.801225    90.225197     0.000000  -0.004450  -0.020119   0.000000 1
Si   -25.801221    94.058292     0.000000  -0.004446  -0.027250   0.000000 1
Si   -28.517112    92.142888     1.920113  -0.004887  -0.022541   0.000000 1
Si   -24.443276    92.141216     0.000000  -0.004226  -0.024214   0.000000 1
Si   -20.369424    90.223259     0.000000  -0.003549  -0.022057   0.000000 1
Si   -20.369411    94.056198     0.000000  -0.003536  -0.029344   0.000000 1
Si   -23.085326    92.140701     1.920113  -0.004001  -0.024728   0.000000 1
Si   -19.011461    92.139288     0.000000  -0.003311  -0.026142   0.000000 1
Si   -14.937590    90.221664     0.000000  -0.002615  -0.023652   0.000000 1
Si   -14.937569    94.054474     0.000000  -0.002594  -0.031069   0.000000 1
Si   -17.653503    92.138861     1.920113  -0.003078  -0.026568   0.000000 1
Si   -13.579616    92.137720     0.000000  -0.002366  -0.027709   0.000000 1
Si    -9.505730    90.220428     0.000000  -0.001655  -0.024889   0.000000 1
Si    -9.505702    94.053135     0.000000  -0.001627  -0.032407   0.000000 1
Si   -12.221651    92.137386     1.920113  -0.002126  -0.028043   0.000000 1
Si    -8.147748    92.136528     0.000000  -0.001398  -0.028902   0.000000 1
Si    -4.073852    90.219560     0.000000  -0.000677  -0.025756   0.000000 1
Si    -4.073819    94.052195     0.000000  -0.000644  -0.033347   0.000000 1
Si    -6.789778    92.136289     1.920113  -0.001153  -0.029140   0.000000 1
Si    -2.715865    92.135722     0.000000  -0.000415  -0.029708   0.000000 1
Si    -1.357893    92.135582     1.920113  -0.000168  -0.029848   0.000000 1
Si   -54.317256    86.406021     1.920113  -0.008256   0.000931   0.000000 1
Si   -54.317321    90.240294     1.920113  -0.008321  -0.005022   0.000000 1
Si   -55.675150    88.324025     1.920113  -0.008425  -0.001178   0.000000 1
Si   -51.601553    88.321477     0.000000  -0.008003  -0.003726   0.000000 1
Si   -48.885772    86.402827     1.920113  -0.007672  -0.002263   0.000000 1
Si   -48.885823    90.236856     1.920113  -0.007723  -0.008460   0.000000 1
Si   -50.243678    88.320655     1.920113  -0.007853  -0.004548   0.000000 1
Si   -46.170024    88.318277     0.000000  -0.007374  -0.006926   0.000000 1
Si   -43.454214    86.399864     1.920113  -0.007014  -0.005226   0.000000 1
Si   -43.454251    90.233660     1.920113  -0.007051  -0.011656   0.000000 1
Si   -44.812131    88.317514     1.920113  -0.007206  -0.007689   0.000000 1
Si   -40.738426    88.315322     0.000000  -0.006676  -0.009881   0.000000 1
Si   -38.022590    86.397149     1.920113  -0.006290  -0.007941   0.000000 1
Si   -38.022614    90.230727     1.920113  -0.006314  -0.014590   0.000000 1
Si   -39.380516    88.314625     1.920113  -0.006491  -0.010578   0.000000 1
Si   -35.306764    88.312634     0.000000  -0.005914  -0.012569   0.000000 1
Si   -32.590905    86.394701     1.920113  -0.005505  -0.010389   0.000000 1
Si   -32.590917    90.228078     1.920113  -0.005517  -0.017238   0.000000 1
Si   -33.948839    88.312006     1.920113  -0.005714  -0.013197   0.000000 1
Si   -29.875046    88.310231     0.000000  -0.005096  -0.014972   0.000000 1
Si   -27.159167    86.392537     1.920113  -0.004667  -0.012552   0.000000 1
Si   -27.159170    90.225733     1.920113  -0.004670  -0.019583   0.000000 1
Si   -28.517109    88.309677     1.920113  -0.004884  -0.015526   0.000000 1
Si   -24.443281    88.308132     0.000000  -0.004231  -0.017071   0.000000 1
Si   -21.727385    86.390674     1.920113  -0.003785  -0.014415   0.000000 1
Si   -21.727378    90.223712     1.920113  -0.003778  -0.021604   0.000000 1
Si   -23.085332    88.307656     1.920113  -0.004007  -0.017547   0.000000 1
Si   -19.011474    88.306352     0.000000  -0.003324  -0.018851   0.000000 1
Si   -16.295565    86.389126     1.920113  -0.002865  -0.015964   0.000000 1
Si   -16.295551    90.222030     1.920113  -0.002851  -0.023286   0.000000 1
Si   -17.653517    88.305958     1.920113  -0.003092  -0.019245   0.000000 1
Si   -13.579636    88.304906     0.000000  -0.002386  -0.020297   0.000000 1
Si   -10.863716    86.387906     1.920113  -0.001916  -0.017184   0.000000 1
Si   -10.863697    90.220703     1.920113  -0.001897  -0.024614   0.000000 1
Si   -12.221672    88.304598     1.920113  -0.002147  -0.020605   0.000000 1
Si    -8.147774    88.303807     0.000000  -0.001424  -0.021396   0.000000 1
Si    -5.431847    86.387023     1.920113  -0.000947  -0.018067   0.000000 1
Si    -5.431823    90.219742     1.920113  -0.000923  -0.025574   0.000000 1
Si    -6.789805    88.303588     1.920113  -0.001180  -0.021615   0.000000 1
Si    -2.715895    88.303065     0.000000  -0.000445  -0.022138   0.000000 1
Si     0.000034    86.386486     1.920113   0.000034  -0.018604   0.000000 1
Si     0.000062    90.219157     1.920113   0.000062  -0.026159   0.000000 1
Si    -1.357924    88.302936     1.920113  -0.000199  -0.022267   0.000000 1
Si   -52.959564    97.907720     0.000000  -0.008289  -0.018049   0.000000 1
Si   -52.959612   101.741813     0.000000  -0.008337  -0.024182   0.000000 1
Si   -55.675336    99.826871     1.920113  -0.008611  -0.019011   0.000000 1
Si   -51.601708    99.823745     0.000000  -0.008158  -0.022136   0.000000 1
Si   -47.528019    97.903841     0.000000  -0.007644  -0.021927   0.000000 1
Si   -47.528054   101.737678     0.000000  -0.007679  -0.028317   0.000000 1
Si   -50.243822    99.822735     1.920113  -0.007997  -0.023146   0.000000 1
Si   -46.170138    99.819806     0.000000  -0.007488  -0.026075   0.000000 1
Si   -42.096403    97.900236     0.000000  -0.006928  -0.025532   0.000000 1
Si   -42.096425   101.733828     0.000000  -0.006950  -0.032166   0.000000 1
Si   -44.812234    99.818865     1.920113  -0.007309  -0.027016   0.000000 1
Si   -40.738499    99.816154     0.000000  -0.006749  -0.029727   0.000000 1
Si   -36.664725    97.896931     0.000000  -0.006150  -0.028837   0.000000 1
Si   -36.664734   101.730296     0.000000  -0.006159  -0.035699   0.000000 1
Si   -39.380580    99.815289     1.920113  -0.006555  -0.030592   0.000000 1
Si   -35.306800    99.812817     0.000000  -0.005950  -0.033064   0.000000 1
Si   -31.232992    97.893952     0.000000  -0.005317  -0.031816   0.000000 1
Si   -31.232988   101.727108     0.000000  -0.005313  -0.038886   0.000000 1
Si   -33.948866    99.812036     1.920113  -0.005741  -0.033846   0.000000 1
Si   -29.875048    99.809823     0.000000  -0.005098  -0.036059   0.000000 1
Si   -25.801211    97.891325     0.000000  -0.004436  -0.034444   0.000000 1
Si   -25.801196   101.724294     0.000000  -0.004421  -0.041700   0.000000 1
Si   -28.517103    99.809131     1.920113  -0.004878  -0.036751   0.000000 1
Si   -24.443251    99.807197     0.000000  -0.004201  -0.038684   0.000000 1
Si   -20.369391    97.889072     0.000000  -0.003516  -0.036696   0.000000 1
Si   -20.369366   101.721880     0.000000  -0.003491  -0.044115   0.000000 1
Si   -23.085296    99.806601     1.920113  -0.003971  -0.039280   0.000000 1
Si   -19.011418    99.804964     0.000000  -0.003268  -0.040917   0.000000 1
Si   -14.937541    97.887216     0.000000  -0.002566  -0.038553   0.000000 1
Si   -14.937506   101.719887     0.000000  -0.002531  -0.046107   0.000000 1
Si   -17.653455    99.804470     1.920113  -0.003030  -0.041412   0.000000 1
Si   -13.579557    99.803146     0.000000  -0.002307  -0.042736   0.000000 1
Si    -9.505667    97.885773     0.000000  -0.001592  -0.039996   0.000000 1
Si    -9.505624   101.718338     0.000000  -0.001549  -0.047656   0.000000 1
Si   -12.221588    99.802758     1.920113  -0.002063  -0.043124   0.000000 1
Si    -8.147674    99.801760     0.000000  -0.001324  -0.044122   0.000000 1
Si    -4.073778    97.884759     0.000000  -0.000603  -0.041009   0.000000 1
Si    -4.073727   101.717250     0.000000  -0.000552  -0.048745   0.000000 1
Si    -6.789701    99.801483     1.920113  -0.001076  -0.044399   0.000000 1
Si    -2.715779    99.800822     0.000000  -0.000329  -0.045060   0.000000 1
Si    -1.357803    99.800659     1.920113  -0.000078  -0.045223   0.000000 1
Si   -54.317382    94.074531     1.920113  -0.008382  -0.011012   0.000000 1
Si   -54.317439    97.908729     1.920113  -0.008439  -0.017040   0.000000 1
Si   -55.675279    95.992626     1.920113  -0.008554  -0.013030   0.000000 1
Si   -51.601661    95.989697     0.000000  -0.008111  -0.015959   0.000000 1
Si   -48.885870    94.070843     1.920113  -0.007770  -0.014699   0.000000 1
Si   -48.885912    97.904787     1.920113  -0.007812  -0.020982   0.000000 1
Si   -50.243778    95.988751     1.920113  -0.007953  -0.016905   0.000000 1
Si   -46.170104    95.986009     0.000000  -0.007454  -0.019646   0.000000 1
Si   -43.454284    94.067409     1.920113  -0.007084  -0.018133   0.000000 1
Si   -43.454314    97.901110     1.920113  -0.007114  -0.024658   0.000000 1
Si   -44.812204    95.985129     1.920113  -0.007279  -0.020527   0.000000 1
Si   -40.738479    95.982594     0.000000  -0.006729  -0.023061   0.000000 1
Si   -38.022634    94.064253     1.920113  -0.006334  -0.021289   0.000000 1
Si   -38.022650    97.897728     1.920113  -0.006350  -0.028041   0.000000 1
Si   -39.380562    95.981786     1.920113  -0.006537  -0.023869   0.000000 1
Si   -35.306792    95.979478     0.000000  -0.005942  -0.026177   0.000000 1
Si   -32.590926    94.061400     1.920113  -0.005526  -0.024143   0.000000 1
Si   -32.590930    97.894665     1.920113  -0.005530  -0.031104   0.000000 1
Si   -33.948862    95.978749     1.920113  -0.005737  -0.026907   0.000000 1
Si   -29.875052    95.976685     0.000000  -0.005102  -0.028970   0.000000 1
Si   -27.159167    94.058871     1.920113  -0.004667  -0.026671   0.000000 1
Si   -27.159160    97.891948     1.920113  -0.004660  -0.033821   0.000000 1
Si   -28.517109    95.976040     1.920113  -0.004884  -0.029616   0.000000 1
Si   -24.443266    95.974238     0.000000  -0.004216  -0.031417   0.000000 1
Si   -21.727367    94.056688     1.920113  -0.003767  -0.028855   0.000000 1
Si   -21.727350    97.889599     1.920113  -0.003750  -0.036169   0.000000 1
Si   -23.085314    95.973683     1.920113  -0.003989  -0.031972   0.000000 1
Si   -19.011443    95.972159     0.000000  -0.003293  -0.033496   0.000000 1
Si   -16.295532    94.054869     1.920113  -0.002832  -0.030673   0.000000 1
Si   -16.295506    97.887642     1.920113  -0.002806  -0.038127   0.000000 1
Si   -17.653482    95.971699     1.920113  -0.003057  -0.033956   0.000000 1
Si   -13.579590    95.970468     0.000000  -0.002340  -0.035188   0.000000 1
Si   -10.863671    94.053433     1.920113  -0.001871  -0.032110   0.000000 1
Si   -10.863637    97.886094     1.920113  -0.001837  -0.039675   0.000000 1
Si   -12.221623    95.970107     1.920113  -0.002098  -0.035548   0.000000 1
Si    -8.147715    95.969179     0.000000  -0.001365  -0.036476   0.000000 1
Si    -5.431791    94.052392     1.920113  -0.000891  -0.033150   0.000000 1
Si    -5.431751    97.884972     1.920113  -0.000851  -0.040797   0.000000 1
Si    -6.789744    95.968922     1.920113  -0.001119  -0.036733   0.000000 1
Si    -2.715826    95.968308     0.000000  -0.000376  -0.037347   0.000000 1
Si     0.000099    94.051758     1.920113   0.000099  -0.033784   0.000000 1
Si     0.000145    97.884288     1.920113   0.000145  -0.041481   0.000000 1
Si    -1.357853    95.968157     1.920113  -0.000128  -0.037499   0.000000 1
Si   -52.959655   105.575865     0.000000  -0.008380  -0.030356   0.000000 1
Si   -52.959692   109.409875     0.000000  -0.008417  -0.036572   0.000000 1
Si   -55.675434   107.495246     1.920113  -0.008709  -0.031088   0.000000 1
Si   -51.601787   107.491716     0.000000  -0.008237  -0.034618   0.000000 1
Si   -47.528084   105.571467     0.000000  -0.007709  -0.034754   0.000000 1
Si   -47.528109   109.405208     0.000000  -0.007734  -0.041239   0.000000 1
Si   -50.243895   107.490573     1.920113  -0.008070  -0.035761   0.000000 1
Si   -46.170191   107.487257     0.000000  -0.007541  -0.039077   0.000000 1
Si   -42.096442   105.567369     0.000000  -0.006967  -0.038852   0.000000 1
Si   -42.096454   109.400855     0.000000  -0.006979  -0.045592   0.000000 1
Si   -44.812281   107.486191     1.920113  -0.007356  -0.040143   0.000000 1
Si   -40.738526   107.483115     0.000000  -0.006776  -0.043220   0.000000 1
Si   -36.664738   105.563603     0.000000  -0.006163  -0.042618   0.000000 1
Si   -36.664737   109.396852     0.000000  -0.006162  -0.049595   0.000000 1
Si   -39.380600   107.482132     1.920113  -0.006575  -0.044202   0.000000 1
Si   -35.306801   107.479321     0.000000  -0.005951  -0.047013   0.000000 1
Si   -31.232979   105.560203     0.000000  -0.005304  -0.046018   0.000000 1
Si   -31.232965   109.393233     0.000000  -0.005290  -0.053214   0.000000 1
Si   -33.948862   107.478432     1.920113  -0.005737  -0.047903   0.000000 1
Si   -29.875025   107.475911     0.000000  -0.005075  -0.050423   0.000000 1
Si   -25.801176   105.557198     0.000000  -0.004401  -0.049023   0.000000 1
Si   -25.801149   109.390033     0.000000  -0.004374  -0.056415   0.000000 1
Si   -28.517073   107.475122     1.920113  -0.004848  -0.051212   0.000000 1
Si   -24.443205   107.472915     0.000000  -0.004155  -0.053419   0.000000 1
Si   -20.369335   105.554617     0.000000  -0.003460  -0.051604   0.000000 1
Si   -20.369297   109.387282     0.000000  -0.003422  -0.059165   0.000000 1
Si   -23.085244   107.472235     1.920113  -0.003919  -0.054099   0.000000 1
Si   -19.011350   107.470364     0.000000  -0.003200  -0.055970   0.000000 1
Si   -14.937465   105.552486     0.000000  -0.002490  -0.053735   0.000000 1
Si   -14.937415   109.385010     0.000000  -0.002440  -0.061438   0.000000 1
Si   -17.653382   107.469799     1.920113  -0.002957  -0.056536   0.000000 1
Si   -13.579468   107.468283     0.000000  -0.002218  -0.058051   0.000000 1
Si    -9.505573   105.550829     0.000000  -0.001498  -0.055392   0.000000 1
Si    -9.505513   109.383241     0.000000  -0.001438  -0.063206   0.000000 1
Si   -12.221495   107.467839     1.920113  -0.001970  -0.058495   0.000000 1
Si    -8.147567   107.466695     0.000000  -0.001217  -0.059639   0.000000 1
Si    -4.073667   105.549663     0.000000  -0.000492  -0.056558   0.000000 1
Si    -4.073597   109.381996     0.000000  -0.000422  -0.064451   0.000000 1
Si    -6.789590   107.466378     1.920113  -0.000965  -0.059956   0.000000 1
Si    -2.715654   107.465620     0.000000  -0.000204  -0.060714   0.000000 1
Si    -1.357674   107.465433     1.920113   0.000051  -0.060901   0.000000 1
Si   -54.317490   101.742888     1.920113  -0.008490  -0.023107   0.000000 1
Si   -54.317536   105.577008     1.920113  -0.008536  -0.029213   0.000000 1
Si   -55.675388   103.661077     1.920113  -0.008663  -0.025030   0.000000 1
Si   -51.601750   103.657752     0.000000  -0.008200  -0.028356   0.000000 1
Si   -48.885950   101.738686     1.920113  -0.007850  -0.027309   0.000000 1
Si   -48.885984   105.572540     1.920113  -0.007884  -0.033681   0.000000 1
Si   -50.243861   103.656677     1.920113  -0.008036  -0.029431   0.000000 1
Si   -46.170167   103.653556     0.000000  -0.007517  -0.032552   0.000000 1
Si   -43.454338   101.734762     1.920113  -0.007138  -0.031233   0.000000 1
Si   -43.454359   105.568363     1.920113  -0.007159  -0.037858   0.000000 1
Si   -44.812260   103.652553     1.920113  -0.007335  -0.033555   0.000000 1
Si   -40.738515   103.649661     0.000000  -0.006765  -0.036446   0.000000 1
Si   -38.022662   101.731148     1.920113  -0.006362  -0.034847   0.000000 1
Si   -38.022669   105.564512     1.920113  -0.006369  -0.041709   0.000000 1
Si   -39.380592   103.648738     1.920113  -0.006567  -0.037369   0.000000 1
Si   -35.306803   103.646099     0.000000  -0.005953  -0.040009   0.000000 1
Si   -32.590929   101.727871     1.920113  -0.005529  -0.038124   0.000000 1
Si   -32.590924   105.561017     1.920113  -0.005524  -0.045204   0.000000 1
Si   -33.948866   103.645264     1.920113  -0.005741  -0.040844   0.000000 1
Si   -29.875039   103.642899     0.000000  -0.005089  -0.043209   0.000000 1
Si   -27.159148   101.724962     1.920113  -0.004648  -0.041033   0.000000 1
Si   -27.159130   105.557910     1.920113  -0.004630  -0.048311   0.000000 1
Si   -28.517091   103.642159     1.920113  -0.004866  -0.043949   0.000000 1
Si   -24.443231   103.640091     0.000000  -0.004181  -0.046017   0.000000 1
Si   -21.727327   101.722445     1.920113  -0.003727  -0.043550   0.000000 1
Si   -21.727298   105.555221     1.920113  -0.003698  -0.051000   0.000000 1
Si   -23.085273   103.639453     1.920113  -0.003948  -0.046655   0.000000 1
Si   -19.011388   103.637700     0.000000  -0.003238  -0.048408   0.000000 1
Si   -16.295474   101.720345     1.920113  -0.002774  -0.045650   0.000000 1
Si   -16.295434   105.552976     1.920113  -0.002734  -0.053245   0.000000 1
Si   -17.653422   103.637171     1.920113  -0.002997  -0.048937   0.000000 1
Si   -13.579516   103.635752     0.000000  -0.002266  -0.050356   0.000000 1
Si   -10.863596   101.718683     1.920113  -0.001796  -0.047312   0.000000 1
Si   -10.863547   105.551198     1.920113  -0.001747  -0.055023   0.000000 1
Si   -12.221545   103.635336     1.920113  -0.002020  -0.050772   0.000000 1
Si    -8.147625   103.634266     0.000000  -0.001275  -0.051842   0.000000 1
Si    -5.431702   101.717478     1.920113  -0.000802  -0.048517   0.000000 1
Si    -5.431644   105.549907     1.920113  -0.000744  -0.056314   0.000000 1
Si    -6.789650   103.633969     1.920113  -0.001025  -0.052139   0.000000 1
Si    -2.715721   103.633260     0.000000  -0.000271  -0.052848   0.000000 1
Si     0.000201   101.716743     1.920113   0.000201  -0.049252   0.000000 1
Si     0.000268   105.549120     1.920113   0.000268  -0.057101   0.000000 1
Si    -1.357744   103.633085     1.920113  -0.000019  -0.053022   0.000000 1
Si   -52.959723   113.243842     0.000000  -0.008448  -0.042831   0.000000 1
Si   -52.959747   117.077766     0.000000  -0.008472  -0.049134   0.000000 1
Si   -55.675506   115.163464     1.920113  -0.008781  -0.043323   0.000000 1
Si   -51.601843   115.159510     0.000000  -0.008293  -0.047276   0.000000 1
Si   -47.528128   113.238901     0.000000  -0.007753  -0.047773   0.000000 1
Si   -47.528141   117.072542     0.000000  -0.007766  -0.054357   0.000000 1
Si   -50.243945   115.158230     1.920113  -0.008120  -0.048557   0.000000 1
Si   -46.170223   115.154508     0.000000  -0.007573  -0.052278   0.000000 1
Si   -42.096460   113.234286     0.000000  -0.006985  -0.052387   0.000000 1
Si   -42.096461   117.067661     0.000000  -0.006986  -0.059239   0.000000 1
Si   -44.812307   115.153310     1.920113  -0.007382  -0.053476   0.000000 1
Si   -40.738533   115.149851     0.000000  -0.006783  -0.056935   0.000000 1
Si   -36.664730   113.230039     0.000000  -0.006155  -0.056634   0.000000 1
Si   -36.664718   117.063164     0.000000  -0.006143  -0.063736   0.000000 1
Si   -39.380601   115.148746     1.920113  -0.006576  -0.058041   0.000000 1
Si   -35.306782   115.145580     0.000000  -0.005932  -0.061207   0.000000 1
Si   -31.232946   113.226197     0.000000  -0.005271  -0.060476   0.000000 1
Si   -31.232920   117.059092     0.000000  -0.005245  -0.067807   0.000000 1
Si   -33.948836   115.144577     1.920113  -0.005711  -0.062210   0.000000 1
Si   -29.874979   115.141734     0.000000  -0.005029  -0.065053   0.000000 1
Si   -25.801117   113.222796     0.000000  -0.004342  -0.063877   0.000000 1
Si   -25.801078   117.055486     0.000000  -0.004303  -0.071413   0.000000 1
Si   -28.517021   115.140843     1.920113  -0.004796  -0.065944   0.000000 1
Si   -24.443133   115.138350     0.000000  -0.004083  -0.068436   0.000000 1
Si   -20.369251   113.219872     0.000000  -0.003376  -0.066802   0.000000 1
Si   -20.369199   117.052383     0.000000  -0.003324  -0.074516   0.000000 1
Si   -23.085166   115.137581     1.920113  -0.003841  -0.069206   0.000000 1
Si   -19.011253   115.135464     0.000000  -0.003103  -0.071322   0.000000 1
Si   -14.937358   113.217454     0.000000  -0.002383  -0.069219   0.000000 1
Si   -14.937292   117.049817     0.000000  -0.002317  -0.077083   0.000000 1
Si   -17.653279   115.134825     1.920113  -0.002854  -0.071962   0.000000 1
Si   -13.579347   115.133108     0.000000  -0.002097  -0.073678   0.000000 1
Si    -9.505444   113.215572     0.000000  -0.001369  -0.071102   0.000000 1
Si    -9.505365   117.047817     0.000000  -0.001290  -0.079082   0.000000 1
Si   -12.221368   115.132605     1.920113  -0.001843  -0.074181   0.000000 1
Si    -8.147423   115.131309     0.000000  -0.001073  -0.075478   0.000000 1
Si    -4.073516   113.214246     0.000000  -0.000341  -0.072427   0.000000 1
Si    -4.073424   117.046409     0.000000  -0.000249  -0.080491   0.000000 1
Si    -6.789440   115.130949     1.920113  -0.000815  -0.075838   0.000000 1
Si    -2.715487   115.130089     0.000000  -0.000037  -0.076698   0.000000 1
Si    -1.357502   115.129877     1.920113   0.000223  -0.076910   0.000000 1
Si   -54.317576   109.411087     1.920113  -0.008576  -0.035360   0.000000 1
Si   -54.317609   113.245125     1.920113  -0.008609  -0.041549   0.000000 1
Si   -55.675474   111.329375     1.920113  -0.008749  -0.037186   0.000000 1
Si   -51.601818   111.325636     0.000000  -0.008268  -0.040925   0.000000 1
Si   -48.886011   109.406347     1.920113  -0.007911  -0.040100   0.000000 1
Si   -48.886034   113.240107     1.920113  -0.007934  -0.046567   0.000000 1
Si   -50.243923   111.324425     1.920113  -0.008098  -0.042136   0.000000 1
Si   -46.170210   111.320909     0.000000  -0.007560  -0.045652   0.000000 1
Si   -43.454374   109.401912     1.920113  -0.007174  -0.044535   0.000000 1
Si   -43.454383   113.235407     1.920113  -0.007183  -0.051266   0.000000 1
Si   -44.812297   111.319777     1.920113  -0.007372  -0.046783   0.000000 1
Si   -40.738532   111.316512     0.000000  -0.006782  -0.050049   0.000000 1
Si   -38.022671   109.397818     1.920113  -0.006371  -0.048629   0.000000 1
Si   -38.022668   113.231064     1.920113  -0.006368  -0.055609   0.000000 1
Si   -39.380603   111.315468     1.920113  -0.006578  -0.051092   0.000000 1
Si   -35.306794   111.312482     0.000000  -0.005944  -0.054078   0.000000 1
Si   -32.590913   109.394100     1.920113  -0.005513  -0.052348   0.000000 1
Si   -32.590897   113.227117     1.920113  -0.005497  -0.059556   0.000000 1
Si   -33.948851   111.311537     1.920113  -0.005726  -0.055024   0.000000 1
Si   -29.875005   111.308857     0.000000  -0.005055  -0.057704   0.000000 1
Si   -27.159107   109.390792     1.920113  -0.004607  -0.055656   0.000000 1
Si   -27.159078   113.223603     1.920113  -0.004578  -0.063070   0.000000 1
Si   -28.517050   111.308017     1.920113  -0.004825  -0.058543   0.000000 1
Si   -24.443172   111.305670     0.000000  -0.004122  -0.060891   0.000000 1
Si   -21.727263   109.387926     1.920113  -0.003663  -0.058521   0.000000 1
Si   -21.727221   113.220556     1.920113  -0.003621  -0.066117   0.000000 1
Si   -23.085208   111.304945     1.920113  -0.003883  -0.061615   0.000000 1
Si   -19.011305   111.302953     0.000000  -0.003155  -0.063607   0.000000 1
Si   -16.295388   109.385531     1.920113  -0.002688  -0.060916   0.000000 1
Si   -16.295333   113.218010     1.920113  -0.002633  -0.068664   0.000000 1
Si   -17.653334   111.302351     1.920113  -0.002909  -0.064210   0.000000 1
Si   -13.579412   111.300736     0.000000  -0.002162  -0.065824   0.000000 1
Si   -10.863490   109.383635     1.920113  -0.001690  -0.062813   0.000000 1
Si   -10.863424   113.215991     1.920113  -0.001624  -0.070683   0.000000 1
Si   -12.221436   111.300263     1.920113  -0.001911  -0.066297   0.000000 1
Si    -8.147500   111.299044     0.000000  -0.001150  -0.067516   0.000000 1
Si    -5.431577   109.382257     1.920113  -0.000677  -0.064190   0.000000 1
Si    -5.431499   113.214524     1.920113  -0.000599  -0.072149   0.000000 1
Si    -6.789520   111.298705     1.920113  -0.000895  -0.067855   0.000000 1
Si    -2.715576   111.297897     0.000000  -0.000126  -0.068663   0.000000 1
Si     0.000345   109.381416     1.920113   0.000345  -0.065031   0.000000 1
Si     0.000434   113.213628     1.920113   0.000434  -0.073045   0.000000 1
Si    -1.357594   111.297697     1.920113   0.000131  -0.068863   0.000000 1
Si   -52.959763   120.911645     0.000000  -0.008488  -0.055481   0.000000 1
Si   -52.959772   124.745479     0.000000  -0.008497  -0.061873   0.000000 1
Si   -55.675548   122.831520     1.920113  -0.008823  -0.055719   0.000000 1
Si   -51.601871   122.827122     0.000000  -0.008321  -0.060117   0.000000 1
Si   -47.528147   120.906133     0.000000  -0.007772  -0.060993   0.000000 1
Si   -47.528146   124.739670     0.000000  -0.007771  -0.067682   0.000000 1
Si   -50.243968   122.825696     1.920113  -0.008143  -0.061543   0.000000 1
Si   -46.170230   122.821548     0.000000  -0.007580  -0.065691   0.000000 1
Si   -42.096456   120.900977     0.000000  -0.006981  -0.066149   0.000000 1
Si   -42.096444   124.734233     0.000000  -0.006969  -0.073119   0.000000 1
Si   -44.812308   122.820212     1.920113  -0.007383  -0.067027   0.000000 1
Si   -40.738516   122.816351     0.000000  -0.006766  -0.070888   0.000000 1
Si   -36.664700   120.896224     0.000000  -0.006125  -0.070902   0.000000 1
Si   -36.664675   124.729216     0.000000  -0.006100  -0.078136   0.000000 1
Si   -39.380577   122.815116     1.920113  -0.006552  -0.072123   0.000000 1
Si   -35.306738   122.811577     0.000000  -0.005888  -0.075662   0.000000 1
Si   -31.232888   120.891917     0.000000  -0.005213  -0.075209   0.000000 1
Si   -31.232849   124.724668     0.000000  -0.005174  -0.082684   0.000000 1
Si   -33.948785   122.810455     1.920113  -0.005660  -0.076784   0.000000 1
Si   -29.874908   122.807272     0.000000  -0.004958  -0.079967   0.000000 1
Si   -25.801031   120.888100     0.000000  -0.004256  -0.079026   0.000000 1
Si   -25.800978   124.720635     0.000000  -0.004203  -0.086717   0.000000 1
Si   -28.516943   122.806274     1.920113  -0.004718  -0.080965   0.000000 1
Si   -24.443033   122.803480     0.000000  -0.003983  -0.083759   0.000000 1
Si   -20.369138   120.884814     0.000000  -0.003263  -0.082312   0.000000 1
Si   -20.369069   124.717160     0.000000  -0.003194  -0.090192   0.000000 1
Si   -23.085059   122.802617     1.920113  -0.003734  -0.084622   0.000000 1
Si   -19.011125   122.800242     0.000000  -0.002975  -0.086997   0.000000 1
Si   -14.937217   120.882095     0.000000  -0.002242  -0.085031   0.000000 1
Si   -14.937132   124.714284     0.000000  -0.002157  -0.093068   0.000000 1
Si   -17.653143   122.799524     1.920113  -0.002718  -0.087715   0.000000 1
Si   -13.579190   122.797596     0.000000  -0.001940  -0.089643   0.000000 1
Si    -9.505275   120.879975     0.000000  -0.001200  -0.087151   0.000000 1
Si    -9.505175   124.712041     0.000000  -0.001100  -0.095311   0.000000 1
Si   -12.221203   122.797031     1.920113  -0.001678  -0.090208   0.000000 1
Si    -8.147237   122.795574     0.000000  -0.000887  -0.091665   0.000000 1
Si    -4.073321   120.878482     0.000000  -0.000146  -0.088644   0.000000 1
Si    -4.073205   124.710460     0.000000  -0.000030  -0.096892   0.000000 1
Si    -6.789247   122.795169     1.920113  -0.000622  -0.092070   0.000000 1
Si    -2.715272   122.794202     0.000000   0.000178  -0.093037   0.000000 1
Si    -1.357280   122.793963     1.920113   0.000445  -0.093276   0.000000 1
Si   -54.317636   117.079121     1.920113  -0.008636  -0.047779   0.000000 1
Si   -54.317655   120.913074     1.920113  -0.008655  -0.054052   0.000000 1
Si   -55.675531   118.997512     1.920113  -0.008806  -0.049500   0.000000 1
Si   -51.601861   118.993339     0.000000  -0.008311  -0.053673   0.000000 1
Si   -48.886049   117.073818     1.920113  -0.007949  -0.053082   0.000000 1
Si   -48.886058   120.907479     1.920113  -0.007958  -0.059647   0.000000 1
Si   -50.243960   118.991987     1.920113  -0.008135  -0.055026   0.000000 1
Si   -46.170230   118.988055     0.000000  -0.007580  -0.058957   0.000000 1
Si   -43.454387   117.068847     1.920113  -0.007187  -0.058053   0.000000 1
Si   -43.454385   120.902230     1.920113  -0.007185  -0.064896   0.000000 1
Si   -44.812311   118.986789     1.920113  -0.007386  -0.060224   0.000000 1
Si   -40.738528   118.983132     0.000000  -0.006778  -0.063881   0.000000 1
Si   -38.022659   117.064250     1.920113  -0.006359  -0.062650   0.000000 1
Si   -38.022644   120.897372     1.920113  -0.006344  -0.069754   0.000000 1
Si   -39.380592   118.981962     1.920113  -0.006567  -0.065051   0.000000 1
Si   -35.306763   118.978612     0.000000  -0.005913  -0.068401   0.000000 1
Si   -32.590874   117.060068     1.920113  -0.005474  -0.066832   0.000000 1
Si   -32.590846   120.892949     1.920113  -0.005446  -0.074177   0.000000 1
Si   -33.948814   118.977551     1.920113  -0.005689  -0.069462   0.000000 1
Si   -29.874947   118.974540     0.000000  -0.004997  -0.072473   0.000000 1
Si   -27.159042   117.056342     1.920113  -0.004542  -0.070557   0.000000 1
Si   -27.158999   120.889006     1.920113  -0.004499  -0.078120   0.000000 1
Si   -28.516985   118.973596     1.920113  -0.004760  -0.073417   0.000000 1
Si   -24.443087   118.970955     0.000000  -0.004037  -0.076058   0.000000 1
Si   -21.727171   117.053110     1.920113  -0.003571  -0.073790   0.000000 1
Si   -21.727114   120.885584     1.920113  -0.003514  -0.081542   0.000000 1
Si   -23.085116   118.970139     1.920113  -0.003791  -0.076874   0.000000 1
Si   -19.011193   118.967895     0.000000  -0.003043  -0.079117   0.000000 1
Si   -16.295271   117.050407     1.920113  -0.002571  -0.076493   0.000000 1
Si   -16.295199   120.882720     1.920113  -0.002499  -0.084406   0.000000 1
Si   -17.653215   118.967217     1.920113  -0.002790  -0.079796   0.000000 1
Si   -13.579273   118.965396     0.000000  -0.002023  -0.081617   0.000000 1
Si   -10.863348   117.048263     1.920113  -0.001548  -0.078637   0.000000 1
Si   -10.863262   120.880447     1.920113  -0.001462  -0.086679   0.000000 1
Si   -12.221290   118.964863     1.920113  -0.001765  -0.082150   0.000000 1
Si    -8.147335   118.963487     0.000000  -0.000985  -0.083526   0.000000 1
Si    -5.431410   117.046705     1.920113  -0.000510  -0.080195   0.000000 1
Si    -5.431310   120.878795     1.920113  -0.000410  -0.088331   0.000000 1
Si    -6.789349   118.963105     1.920113  -0.000724  -0.083908   0.000000 1
Si    -2.715386   118.962192     0.000000   0.000064  -0.084821   0.000000 1
Si     0.000536   117.045752     1.920113   0.000536  -0.081147   0.000000 1
Si     0.000650   120.877785     1.920113   0.000650  -0.089341   0.000000 1
Si    -1.357397   118.961966     1.920113   0.000328  -0.085046   0.000000 1
Si   -52.959772   128.579267     0.000000  -0.008497  -0.068311   0.000000 1
Si   -52.959762   132.413008     0.000000  -0.008487  -0.074797   0.000000 1
Si   -55.675554   130.499409     1.920113  -0.008829  -0.068282   0.000000 1
Si   -51.601867   130.494542     0.000000  -0.008317  -0.073149   0.000000 1
Si   -47.528137   128.573154     0.000000  -0.007762  -0.074425   0.000000 1
Si   -47.528120   132.406581     0.000000  -0.007745  -0.081223   0.000000 1
Si   -50.243960   130.492963     1.920113  -0.008135  -0.074728   0.000000 1
Si   -46.170207   130.488367     0.000000  -0.007557  -0.079324   0.000000 1
Si   -42.096424   128.567427     0.000000  -0.006949  -0.080152   0.000000 1
Si   -42.096397   132.400557     0.000000  -0.006922  -0.087247   0.000000 1
Si   -44.812280   130.486885     1.920113  -0.007355  -0.080807   0.000000 1
Si   -40.738471   130.482600     0.000000  -0.006721  -0.085092   0.000000 1
Si   -36.664642   128.562139     0.000000  -0.006067  -0.085439   0.000000 1
Si   -36.664603   132.394991     0.000000  -0.006028  -0.092813   0.000000 1
Si   -39.380525   130.481228     1.920113  -0.006500  -0.086464   0.000000 1
Si   -35.306667   130.477294     0.000000  -0.005817  -0.090397   0.000000 1
Si   -31.232803   128.557343     0.000000  -0.005128  -0.090236   0.000000 1
Si   -31.232749   132.389939     0.000000  -0.005074  -0.097866   0.000000 1
Si   -33.948707   130.476046     1.920113  -0.005582  -0.091645   0.000000 1
Si   -29.874807   130.472504     0.000000  -0.004857  -0.095187   0.000000 1
Si   -25.800916   128.553087     0.000000  -0.004141  -0.094492   0.000000 1
Si   -25.800846   132.385453     0.000000  -0.004071  -0.102351   0.000000 1
Si   -28.516835   130.471393     1.920113  -0.004610  -0.096298   0.000000 1
Si   -24.442902   130.468281     0.000000  -0.003852  -0.099411   0.000000 1
Si   -20.368991   128.549418     0.000000  -0.003116  -0.098160   0.000000 1
Si   -20.368904   132.381585     0.000000  -0.003029  -0.106219   0.000000 1
Si   -23.084919   130.467319     1.920113  -0.003594  -0.100372   0.000000 1
Si   -19.010960   130.464671     0.000000  -0.002810  -0.103020   0.000000 1
Si   -14.937037   128.546380     0.000000  -0.002062  -0.101198   0.000000 1
Si   -14.936932   132.378381     0.000000  -0.001957  -0.109424   0.000000 1
Si   -17.652970   130.463870     1.920113  -0.002545  -0.103822   0.000000 1
Si   -13.578992   130.461718     0.000000  -0.001742  -0.105973   0.000000 1
Si    -9.505063   128.544010     0.000000  -0.000988  -0.103568   0.000000 1
Si    -9.504939   132.375880     0.000000  -0.000864  -0.111925   0.000000 1
Si   -12.220996   130.461087     1.920113  -0.001471  -0.106604   0.000000 1
Si    -8.147004   130.459460     0.000000  -0.000654  -0.108231   0.000000 1
Si    -4.073075   128.542339     0.000000   0.000100  -0.105239   0.000000 1
Si    -4.072932   132.374116     0.000000   0.000243  -0.113689   0.000000 1
Si    -6.789005   130.459008     1.920113  -0.000380  -0.108684   0.000000 1
Si    -2.715005   130.457926     0.000000   0.000445  -0.109765   0.000000 1
Si    -1.357004   130.457659     1.920113   0.000721  -0.110032   0.000000 1
Si   -54.317665   124.746984     1.920113  -0.008665  -0.060368   0.000000 1
Si   -54.317667   128.580850     1.920113  -0.008667  -0.066729   0.000000 1
Si   -55.675556   126.665486     1.920113  -0.008831  -0.061980   0.000000 1
Si   -51.601873   126.660856     0.000000  -0.008323  -0.066609   0.000000 1
Si   -48.886060   124.741090     1.920113  -0.007960  -0.066262   0.000000 1
Si   -48.886054   128.574648     1.920113  -0.007954  -0.072931   0.000000 1
Si   -50.243968   126.659355     1.920113  -0.008143  -0.068110   0.000000 1
Si   -46.170223   126.654986     0.000000  -0.007573  -0.072479   0.000000 1
Si   -43.454376   124.735555     1.920113  -0.007176  -0.071797   0.000000 1
Si   -43.454359   128.568819     1.920113  -0.007159  -0.078759   0.000000 1
Si   -44.812298   126.653578     1.920113  -0.007373  -0.073887   0.000000 1
Si   -40.738497   126.649508     0.000000  -0.006747  -0.077957   0.000000 1
Si   -38.022623   124.730428     1.920113  -0.006323  -0.076924   0.000000 1
Si   -38.022594   128.563417     1.920113  -0.006294  -0.084161   0.000000 1
Si   -39.380555   126.648205     1.920113  -0.006530  -0.079260   0.000000 1
Si   -35.306706   126.644472     0.000000  -0.005856  -0.082993   0.000000 1
Si   -32.590810   124.725758     1.920113  -0.005410  -0.081594   0.000000 1
Si   -32.590768   128.558493     1.920113  -0.005368  -0.089085   0.000000 1
Si   -33.948750   126.643288     1.920113  -0.005625  -0.084178   0.000000 1
Si   -29.874861   126.639928     0.000000  -0.004911  -0.087538   0.000000 1
Si   -27.158949   124.721592     1.920113  -0.004449  -0.085760   0.000000 1
Si   -27.158892   128.554098     1.920113  -0.004392  -0.093481   0.000000 1
Si   -28.516893   126.638874     1.920113  -0.004668  -0.088591   0.000000 1
Si   -24.442972   126.635923     0.000000  -0.003922  -0.091542   0.000000 1
Si   -21.727049   124.717974     1.920113  -0.003449  -0.089378   0.000000 1
Si   -21.726975   128.550278     1.920113  -0.003375  -0.097300   0.000000 1
Si   -23.084994   126.635011     1.920113  -0.003669  -0.092454   0.000000 1
Si   -19.011047   126.632502     0.000000  -0.002897  -0.094963   0.000000 1
Si   -16.295118   124.714945     1.920113  -0.002418  -0.092407   0.000000 1
Si   -16.295028   128.547079     1.920113  -0.002328  -0.100500   0.000000 1
Si   -17.653062   126.631743     1.920113  -0.002637  -0.095722   0.000000 1
Si   -13.579096   126.629705     0.000000  -0.001846  -0.097760   0.000000 1
Si   -10.863166   124.712540     1.920113  -0.001366  -0.094812   0.000000 1
Si   -10.863058   128.544538     1.920113  -0.001258  -0.103040   0.000000 1
Si   -12.221105   126.629108     1.920113  -0.001580  -0.098358   0.000000 1
Si    -8.147127   126.627566     0.000000  -0.000777  -0.099899   0.000000 1
Si    -5.431198   124.710791     1.920113  -0.000298  -0.096561   0.000000 1
Si    -5.431073   128.542690     1.920113  -0.000173  -0.104888   0.000000 1
Si    -6.789132   126.627138     1.920113  -0.000507  -0.100327   0.000000 1
Si    -2.715146   126.626115     0.000000   0.000304  -0.101350   0.000000 1
Si     0.000778   124.709722     1.920113   0.000778  -0.097630   0.000000 1
Si     0.000920   128.541559     1.920113   0.000920  -0.106019   0.000000 1
Si    -1.357149   126.625862     1.920113   0.000576  -0.101603   0.000000 1
Si   -52.959742   136.246701     0.000000  -0.008467  -0.081329   0.000000 1
Si   -52.959710   140.080347     0.000000  -0.008435  -0.087910   0.000000 1
Si   -55.675517   138.167127     1.920113  -0.008792  -0.081017   0.000000 1
Si   -51.601823   138.161766     0.000000  -0.008273  -0.086378   0.000000 1
Si   -47.528094   136.239953     0.000000  -0.007719  -0.088078   0.000000 1
Si   -47.528057   140.073266     0.000000  -0.007682  -0.094991   0.000000 1
Si   -50.243913   138.160024     1.920113  -0.008088  -0.088120   0.000000 1
Si   -46.170150   138.154953     0.000000  -0.007500  -0.093191   0.000000 1
Si   -42.096361   136.233622     0.000000  -0.006886  -0.094409   0.000000 1
Si   -42.096316   140.066619     0.000000  -0.006841  -0.101638   0.000000 1
Si   -44.812218   138.153316     1.920113  -0.007293  -0.094828   0.000000 1
Si   -40.738393   138.148581     0.000000  -0.006643  -0.099563   0.000000 1
Si   -36.664554   136.227769     0.000000  -0.005979  -0.100262   0.000000 1
Si   -36.664497   140.060471     0.000000  -0.005922  -0.107786   0.000000 1
Si   -39.380442   138.147065     1.920113  -0.006417  -0.101079   0.000000 1
Si   -35.306564   138.142713     0.000000  -0.005714  -0.105431   0.000000 1
Si   -31.232686   136.222453     0.000000  -0.005011  -0.105578   0.000000 1
Si   -31.232614   140.054883     0.000000  -0.004939  -0.113374   0.000000 1
Si   -33.948596   138.141332     1.920113  -0.005471  -0.106812   0.000000 1
Si   -29.874674   138.137409     0.000000  -0.004724  -0.110735   0.000000 1
Si   -25.800766   136.217731     0.000000  -0.003991  -0.110300   0.000000 1
Si   -25.800677   140.049917     0.000000  -0.003902  -0.118340   0.000000 1
Si   -28.516693   138.136177     1.920113  -0.004468  -0.111966   0.000000 1
Si   -24.442734   138.132727     0.000000  -0.003684  -0.115417   0.000000 1
Si   -20.368806   136.213657     0.000000  -0.002931  -0.114373   0.000000 1
Si   -20.368697   140.045630     0.000000  -0.002822  -0.122627   0.000000 1
Si   -23.084743   138.131660     1.920113  -0.003418  -0.116484   0.000000 1
Si   -19.010755   138.128721     0.000000  -0.002605  -0.119422   0.000000 1
Si   -14.936815   136.210281     0.000000  -0.001840  -0.117750   0.000000 1
Si   -14.936685   140.042076     0.000000  -0.001710  -0.126181   0.000000 1
Si   -17.652756   138.127832     1.920113  -0.002331  -0.120312   0.000000 1
Si   -13.578747   138.125443     0.000000  -0.001497  -0.122701   0.000000 1
Si    -9.504801   136.207645     0.000000  -0.000726  -0.120386   0.000000 1
Si    -9.504650   140.039300     0.000000  -0.000575  -0.128957   0.000000 1
Si   -12.220742   138.124742     1.920113  -0.001217  -0.123402   0.000000 1
Si    -8.146719   138.122933     0.000000  -0.000369  -0.125211   0.000000 1
Si    -4.072773   136.205785     0.000000   0.000402  -0.122246   0.000000 1
Si    -4.072599   140.037341     0.000000   0.000576  -0.130916   0.000000 1
Si    -6.788709   138.122430     1.920113  -0.000084  -0.125713   0.000000 1
Si    -2.714677   138.121228     0.000000   0.000773  -0.126916   0.000000 1
Si    -1.356666   138.120931     1.920113   0.001059  -0.127213   0.000000 1
Si   -54.317658   132.414671     1.920113  -0.008658  -0.073134   0.000000 1
Si   -54.317639   136.248447     1.920113  -0.008639  -0.079584   0.000000 1
Si   -55.675541   134.333290     1.920113  -0.008816  -0.074628   0.000000 1
Si   -51.601850   134.328179     0.000000  -0.008300  -0.079738   0.000000 1
Si   -48.886039   132.408153     1.920113  -0.007939  -0.079652   0.000000 1
Si   -48.886014   136.241603     1.920113  -0.007914  -0.086428   0.000000 1
Si   -50.243942   134.326520     1.920113  -0.008117  -0.081398   0.000000 1
Si   -46.170183   134.321690     0.000000  -0.007533  -0.086228   0.000000 1
Si   -43.454335   132.402022     1.920113  -0.007135  -0.085782   0.000000 1
Si   -43.454301   136.235162     1.920113  -0.007101  -0.092868   0.000000 1
Si   -44.812254   134.320131     1.920113  -0.007329  -0.087786   0.000000 1
Si   -40.738436   134.315625     0.000000  -0.006686  -0.092293   0.000000 1
Si   -38.022557   132.396336     1.920113  -0.006257  -0.091468   0.000000 1
Si   -38.022512   136.229184     1.920113  -0.006212  -0.098847   0.000000 1
Si   -39.380488   134.314182     1.920113  -0.006463  -0.093736   0.000000 1
Si   -35.306620   134.310042     0.000000  -0.005770  -0.097875   0.000000 1
Si   -32.590717   132.391151     1.920113  -0.005317  -0.096654   0.000000 1
Si   -32.590658   136.223728     1.920113  -0.005258  -0.104302   0.000000 1
Si   -33.948656   134.308729     1.920113  -0.005531  -0.099189   0.000000 1
Si   -29.874745   134.304999     0.000000  -0.004795  -0.102919   0.000000 1
Si   -27.158825   132.386519     1.920113  -0.004325  -0.101286   0.000000 1
Si   -27.158750   136.218853     1.920113  -0.004250  -0.109178   0.000000 1
Si   -28.516768   134.303829     1.920113  -0.004543  -0.104089   0.000000 1
Si   -24.442823   134.300550     0.000000  -0.003773  -0.107368   0.000000 1
Si   -21.726892   132.382492     1.920113  -0.003292  -0.105313   0.000000 1
Si   -21.726799   136.214612     1.920113  -0.003199  -0.113418   0.000000 1
Si   -23.084836   134.299536     1.920113  -0.003511  -0.108381   0.000000 1
Si   -19.010863   134.296745     0.000000  -0.002713  -0.111172   0.000000 1
Si   -16.294927   132.379117     1.920113  -0.002227  -0.108687   0.000000 1
Si   -16.294815   136.211057     1.920113  -0.002115  -0.116974   0.000000 1
Si   -17.652869   134.295901     1.920113  -0.002444  -0.112017   0.000000 1
Si   -13.578876   134.293632     0.000000  -0.001626  -0.114285   0.000000 1
Si   -10.862938   132.376437     1.920113  -0.001138  -0.111367   0.000000 1
Si   -10.862806   136.208232     1.920113  -0.001006  -0.119799   0.000000 1
Si   -12.220875   134.292967     1.920113  -0.001350  -0.114951   0.000000 1
Si    -8.146868   134.291250     0.000000  -0.000518  -0.116667   0.000000 1
Si    -5.430934   132.374486     1.920113  -0.000034  -0.113318   0.000000 1
Si    -5.430781   136.206175     1.920113   0.000119  -0.121855   0.000000 1
Si    -6.788864   134.290773     1.920113  -0.000239  -0.117144   0.000000 1
Si    -2.714849   134.289633     0.000000   0.000601  -0.118285   0.000000 1
Si     0.001078   132.373292     1.920113   0.001078  -0.114512   0.000000 1
Si     0.001252   136.204916     1.920113   0.001252  -0.123114   0.000000 1
Si    -1.356843   134.289351     1.920113   0.000882  -0.118567   0.000000 1
Si   -52.959666   143.913943     0.000000  -0.008391  -0.094540   0.000000 1
Si   -52.959608   147.747490     0.000000  -0.008333  -0.101220   0.000000 1
Si   -55.675428   145.834671     1.920113  -0.008703  -0.093925   0.000000 1
Si   -51.601734   145.828784     0.000000  -0.008184  -0.099812   0.000000 1
Si   -47.528009   143.906520     0.000000  -0.007634  -0.101963   0.000000 1
Si   -47.527950   147.739714     0.000000  -0.007575  -0.108995   0.000000 1
Si   -50.243822   145.826871     1.920113  -0.007997  -0.101725   0.000000 1
Si   -46.170051   145.821295     0.000000  -0.007401  -0.107302   0.000000 1
Si   -42.096260   143.899548     0.000000  -0.006785  -0.108935   0.000000 1
Si   -42.096194   147.732405     0.000000  -0.006719  -0.116305   0.000000 1
Si   -44.812116   145.819494     1.920113  -0.007191  -0.109103   0.000000 1
Si   -40.738277   145.814281     0.000000  -0.006527  -0.114316   0.000000 1
Si   -36.664430   143.893094     0.000000  -0.005855  -0.115390   0.000000 1
Si   -36.664353   147.725635     0.000000  -0.005778  -0.123074   0.000000 1
Si   -39.380320   145.812610     1.920113  -0.006295  -0.115987   0.000000 1
Si   -35.306423   145.807812     0.000000  -0.005573  -0.120784   0.000000 1
Si   -31.232532   143.887224     0.000000  -0.004857  -0.121259   0.000000 1
Si   -31.232440   147.719475     0.000000  -0.004765  -0.129234   0.000000 1
Si   -33.948448   145.806289     1.920113  -0.005323  -0.122307   0.000000 1
Si   -29.874501   145.801959     0.000000  -0.004551  -0.126637   0.000000 1
Si   -25.800577   143.882006     0.000000  -0.003802  -0.126477   0.000000 1
Si   -25.800467   147.713996     0.000000  -0.003692  -0.134714   0.000000 1
Si   -28.516512   145.800600     1.920113  -0.004287  -0.127996   0.000000 1
Si   -24.442525   145.796788     0.000000  -0.003475  -0.131808   0.000000 1
Si   -20.368577   143.877500     0.000000  -0.002702  -0.130983   0.000000 1
Si   -20.368445   147.709262     0.000000  -0.002570  -0.139447   0.000000 1
Si   -23.084523   145.795609     1.920113  -0.003198  -0.132987   0.000000 1
Si   -19.010504   145.792361     0.000000  -0.002354  -0.136236   0.000000 1
Si   -14.936543   143.873762     0.000000  -0.001568  -0.134721   0.000000 1
Si   -14.936387   147.705334     0.000000  -0.001412  -0.143376   0.000000 1
Si   -17.652494   145.791377     1.920113  -0.002069  -0.137220   0.000000 1
Si   -13.578451   145.788733     0.000000  -0.001201  -0.139863   0.000000 1
Si    -9.504484   143.870842     0.000000  -0.000409  -0.137641   0.000000 1
Si    -9.504302   147.702264     0.000000  -0.000227  -0.146446   0.000000 1
Si   -12.220433   145.787958     1.920113  -0.000908  -0.140639   0.000000 1
Si    -8.146374   145.785955     0.000000  -0.000024  -0.142641   0.000000 1
Si    -4.072408   143.868780     0.000000   0.000767  -0.139703   0.000000 1
Si    -4.072199   147.700096     0.000000   0.000976  -0.148613   0.000000 1
Si    -6.788352   145.785399     1.920113   0.000273  -0.143198   0.000000 1
Si    -2.714282   145.784067     0.000000   0.001168  -0.144529   0.000000 1
Si    -1.356258   145.783738     1.920113   0.001467  -0.144859   0.000000 1
Si   -54.317608   140.082177     1.920113  -0.008608  -0.086080   0.000000 1
Si   -54.317564   143.915861     1.920113  -0.008564  -0.092622   0.000000 1
Si   -55.675479   142.000921     1.920113  -0.008754  -0.087449   0.000000 1
Si   -51.601785   141.995301     0.000000  -0.008235  -0.093069   0.000000 1
Si   -48.885979   140.074998     1.920113  -0.007879  -0.093259   0.000000 1
Si   -48.885933   143.908337     1.920113  -0.007833  -0.100147   0.000000 1
Si   -50.243874   141.993475     1.920113  -0.008049  -0.094895   0.000000 1
Si   -46.170106   141.988155     0.000000  -0.007456  -0.100215   0.000000 1
Si   -43.454259   140.068237     1.920113  -0.007059  -0.100020   0.000000 1
Si   -43.454205   143.901245     1.920113  -0.007005  -0.107238   0.000000 1
Si   -44.812172   141.986437     1.920113  -0.007247  -0.101933   0.000000 1
Si   -40.738340   141.981467     0.000000  -0.006590  -0.106903   0.000000 1
Si   -38.022458   140.061958     1.920113  -0.006158  -0.106299   0.000000 1
Si   -38.022395   143.894655     1.920113  -0.006095  -0.113829   0.000000 1
Si   -39.380386   141.979875     1.920113  -0.006361  -0.108495   0.000000 1
Si   -35.306498   141.975304     0.000000  -0.005648  -0.113066   0.000000 1
Si   -32.590590   140.056223     1.920113  -0.005190  -0.112034   0.000000 1
Si   -32.590513   143.888633     1.920113  -0.005113  -0.119850   0.000000 1
Si   -33.948527   141.973853     1.920113  -0.005402  -0.114517   0.000000 1
Si   -29.874593   141.969730     0.000000  -0.004643  -0.118640   0.000000 1
Si   -27.158666   140.051097     1.920113  -0.004166  -0.117160   0.000000 1
Si   -27.158571   143.883246     1.920113  -0.004071  -0.125237   0.000000 1
Si   -28.516608   141.968436     1.920113  -0.004383  -0.119934   0.000000 1
Si   -24.442635   141.964807     0.000000  -0.003585  -0.123563   0.000000 1
Si   -21.726696   140.046635     1.920113  -0.003096  -0.121622   0.000000 1
Si   -21.726581   143.878557     1.920113  -0.002981  -0.129927   0.000000 1
Si   -23.084639   141.963685     1.920113  -0.003314  -0.124685   0.000000 1
Si   -19.010636   141.960595     0.000000  -0.002486  -0.127776   0.000000 1
Si   -16.294691   140.042893     1.920113  -0.001991  -0.125364   0.000000 1
Si   -16.294554   143.874622     1.920113  -0.001854  -0.133862   0.000000 1
Si   -17.652631   141.959659     1.920113  -0.002206  -0.128712   0.000000 1
Si   -13.578606   141.957145     0.000000  -0.001356  -0.131226   0.000000 1
Si   -10.862660   140.039919     1.920113  -0.000860  -0.128338   0.000000 1
Si   -10.862500   143.871493     1.920113  -0.000700  -0.136990   0.000000 1
Si   -12.220595   141.956407     1.920113  -0.001070  -0.131963   0.000000 1
Si    -8.146554   141.954503     0.000000  -0.000204  -0.133867   0.000000 1
Si    -5.430613   140.037753     1.920113   0.000287  -0.130504   0.000000 1
Si    -5.430428   143.869213     1.920113   0.000472  -0.139270   0.000000 1
Si    -6.788539   141.953974     1.920113   0.000086  -0.134396   0.000000 1
Si    -2.714489   141.952708     0.000000   0.000961  -0.135662   0.000000 1
Si     0.001444   140.036426     1.920113   0.001444  -0.131831   0.000000 1
Si     0.001654   143.867817     1.920113   0.001654  -0.140666   0.000000 1
Si    -1.356471   141.952395     1.920113   0.001254  -0.135975   0.000000 1
Si   -52.959535   151.580987     0.000000  -0.008260  -0.107949   0.000000 1
Si   -52.959446   155.414433     0.000000  -0.008171  -0.114729   0.000000 2
Si   -55.675278   153.502040     1.920113  -0.008553  -0.107009   0.000000 1
Si   -51.601589   153.495593     0.000000  -0.008039  -0.113456   0.000000 1
Si   -47.527877   151.572846     0.000000  -0.007502  -0.116089   0.000000 1
Si   -47.527789   155.405916     0.000000  -0.007414  -0.123246   0.000000 2
Si   -50.243678   153.493496     1.920113  -0.007853  -0.115552   0.000000 1
Si   -46.169903   153.487381     0.000000  -0.007253  -0.121668   0.000000 1
Si   -42.096116   151.565189     0.000000  -0.006641  -0.123747   0.000000 1
Si   -42.096024   155.397898     0.000000  -0.006549  -0.131264   0.000000 2
Si   -44.811966   153.485405     1.920113  -0.007041  -0.123644   0.000000 1
Si   -40.738116   153.479680     0.000000  -0.006366  -0.129368   0.000000 1
Si   -36.664264   151.558092     0.000000  -0.005689  -0.130843   0.000000 1
Si   -36.664163   155.390463     0.000000  -0.005588  -0.138699   0.000000 2
Si   -39.380154   153.477844     1.920113  -0.006129  -0.131204   0.000000 1
Si   -35.306238   153.472571     0.000000  -0.005388  -0.136478   0.000000 1
Si   -31.232336   151.551632     0.000000  -0.004661  -0.137304   0.000000 1
Si   -31.232220   155.383690     0.000000  -0.004545  -0.145472   0.000000 2
Si   -33.948257   153.470895     1.920113  -0.005132  -0.138154   0.000000 1
Si   -29.874285   153.466130     0.000000  -0.004335  -0.142919   0.000000 1
Si   -25.800344   151.545881     0.000000  -0.003569  -0.143054   0.000000 1
Si   -25.800208   155.377659     0.000000  -0.003433  -0.151503   0.000000 2
Si   -28.516286   153.464633     1.920113  -0.004061  -0.144416   0.000000 1
Si   -24.442268   153.460434     0.000000  -0.003218  -0.148615   0.000000 1
Si   -20.368300   151.540912     0.000000  -0.002425  -0.148024   0.000000 1
Si   -20.368140   155.372444     0.000000  -0.002265  -0.156718   0.000000 2
Si   -23.084255   153.459134     1.920113  -0.002930  -0.149914   0.000000 1
Si   -19.010201   153.455553     0.000000  -0.002051  -0.153496   0.000000 1
Si   -14.936216   151.536786     0.000000  -0.001241  -0.152150   0.000000 1
Si   -14.936029   155.368114     0.000000  -0.001054  -0.161048   0.000000 2
Si   -17.652177   153.454467     1.920113  -0.001752  -0.154581   0.000000 1
Si   -13.578095   153.451551     0.000000  -0.000845  -0.157498   0.000000 1
Si    -9.504103   151.533561     0.000000  -0.000028  -0.155375   0.000000 1
Si    -9.503886   155.364727     0.000000   0.000189  -0.164435   0.000000 2
Si   -12.220064   153.450695     1.920113  -0.000539  -0.158354   0.000000 1
Si    -8.145961   153.448484     0.000000   0.000389  -0.160564   0.000000 1
Si    -4.071971   151.531283     0.000000   0.001204  -0.157653   0.000000 1
Si    -4.071723   155.362334     0.000000   0.001452  -0.166827   0.000000 2
Si    -6.787925   153.447869     1.920113   0.000700  -0.161179   0.000000 1
Si    -2.713811   153.446398     0.000000   0.001639  -0.162650   0.000000 1
Si     1.360451   155.360974     0.000000   0.002726  -0.168188   0.000000 2
Si    -1.355772   153.446035     1.920113   0.001953  -0.163014   0.000000 1
Si   -54.317506   147.749498     1.920113  -0.008506  -0.099211   0.000000 1
Si   -54.317432   151.583088     1.920113  -0.008432  -0.105847   0.000000 1
Si   -55.675361   149.668378     1.920113  -0.008636  -0.100445   0.000000 1
Si   -51.601669   149.662215     0.000000  -0.008119  -0.106607   0.000000 1
Si   -48.885874   147.741617     1.920113  -0.007774  -0.107092   0.000000 1
Si   -48.885801   151.574839     1.920113  -0.007701  -0.114096   0.000000 1
Si   -50.243757   149.660212     1.920113  -0.007932  -0.108611   0.000000 1
Si   -46.169984   149.654371     0.000000  -0.007334  -0.114452   0.000000 1
Si   -43.454141   147.734185     1.920113  -0.006941  -0.114525   0.000000 1
Si   -43.454065   151.567054     1.920113  -0.006865  -0.121882   0.000000 1
Si   -44.812047   149.652483     1.920113  -0.007122  -0.116339   0.000000 1
Si   -40.738202   149.647019     0.000000  -0.006452  -0.121803   0.000000 1
Si   -38.022321   147.727273     1.920113  -0.006021  -0.121437   0.000000 1
Si   -38.022235   151.559809     1.920113  -0.005935  -0.129126   0.000000 1
Si   -39.380243   149.645267     1.920113  -0.006218  -0.123556   0.000000 1
Si   -35.306337   149.640236     0.000000  -0.005487  -0.128587   0.000000 1
Si   -32.590424   147.720954     1.920113  -0.005024  -0.127756   0.000000 1
Si   -32.590325   151.553183     1.920113  -0.004925  -0.135753   0.000000 1
Si   -33.948358   149.638637     1.920113  -0.005233  -0.130185   0.000000 1
Si   -29.874399   149.634094     0.000000  -0.004449  -0.134728   0.000000 1
Si   -27.158465   147.715298     1.920113  -0.003965  -0.133411   0.000000 1
Si   -27.158347   151.547249     1.920113  -0.003847  -0.141687   0.000000 1
Si   -28.516405   149.632667     1.920113  -0.004180  -0.136155   0.000000 1
Si   -24.442403   149.628665     0.000000  -0.003353  -0.140157   0.000000 1
Si   -21.726454   147.710372     1.920113  -0.002854  -0.138337   0.000000 1
Si   -21.726315   151.542077     1.920113  -0.002715  -0.146858   0.000000 1
Si   -23.084396   149.627427     1.920113  -0.003071  -0.141396   0.000000 1
Si   -19.010359   149.624015     0.000000  -0.002209  -0.144808   0.000000 1
Si   -16.294404   147.706237     1.920113  -0.001704  -0.142472   0.000000 1
Si   -16.294240   151.537735     1.920113  -0.001540  -0.151200   0.000000 1
Si   -17.652343   149.622981     1.920113  -0.001918  -0.145841   0.000000 1
Si   -13.578281   149.620204     0.000000  -0.001031  -0.148618   0.000000 1
Si   -10.862325   147.702948     1.920113  -0.000525  -0.145761   0.000000 1
Si   -10.862133   151.534280     1.920113  -0.000333  -0.154656   0.000000 1
Si   -12.220257   149.619389     1.920113  -0.000732  -0.149434   0.000000 1
Si    -8.146177   149.617284     0.000000   0.000173  -0.151538   0.000000 1
Si    -5.430226   147.700551     1.920113   0.000674  -0.148158   0.000000 1
Si    -5.430005   151.531761     1.920113   0.000895  -0.157174   0.000000 1
Si    -6.788148   149.616699     1.920113   0.000477  -0.152123   0.000000 1
Si    -2.714057   149.615299     0.000000   0.001393  -0.153523   0.000000 1
Si     0.001884   147.699083     1.920113   0.001884  -0.149626   0.000000 1
Si     0.002134   151.530218     1.920113   0.002134  -0.158718   0.000000 1
Si    -1.356025   149.614953     1.920113   0.001700  -0.153870   0.000000 1
Si   -52.959339   159.247829     0.000000  -0.008064  -0.121559   0.000000 2
Si   -52.959212   163.081174     0.000000  -0.007937  -0.128440   0.000000 2
Si   -55.675054   161.169232     1.920113  -0.008329  -0.120269   0.000000 2
Si   -51.601377   161.162187     0.000000  -0.007827  -0.127314   0.000000 2
Si   -47.527686   159.238921     0.000000  -0.007311  -0.130467   0.000000 2
Si   -47.527566   163.071862     0.000000  -0.007191  -0.137753   0.000000 2
Si   -50.243469   161.159894     1.920113  -0.007644  -0.129607   0.000000 2
Si   -46.169697   161.153201     0.000000  -0.007047  -0.136300   0.000000 2
Si   -42.095919   159.230530     0.000000  -0.006444  -0.138858   0.000000 2
Si   -42.095797   163.063083     0.000000  -0.006322  -0.146531   0.000000 2
Si   -44.811758   161.151037     1.920113  -0.006833  -0.138464   0.000000 2
Si   -40.737901   161.144764     0.000000  -0.006151  -0.144737   0.000000 2
Si   -36.664049   159.222743     0.000000  -0.005474  -0.146645   0.000000 2
Si   -36.663920   163.054932     0.000000  -0.005345  -0.154683   0.000000 2
Si   -39.379935   161.142750     1.920113  -0.005910  -0.146751   0.000000 2
Si   -35.306003   161.136964     0.000000  -0.005153  -0.152537   0.000000 2
Si   -31.232091   159.215647     0.000000  -0.004416  -0.153741   0.000000 2
Si   -31.231947   163.047498     0.000000  -0.004272  -0.162116   0.000000 2
Si   -33.948014   161.135124     1.920113  -0.004889  -0.154377   0.000000 2
Si   -29.874017   161.129890     0.000000  -0.004067  -0.159611   0.000000 2
Si   -25.800058   159.209324     0.000000  -0.003283  -0.160064   0.000000 2
Si   -25.799893   163.040872     0.000000  -0.003118  -0.168742   0.000000 2
Si   -28.516008   161.128245     1.920113  -0.003783  -0.161256   0.000000 2
Si   -24.441957   161.123628     0.000000  -0.002907  -0.165873   0.000000 2
Si   -20.367965   159.203855     0.000000  -0.002090  -0.165533   0.000000 2
Si   -20.367774   163.035137     0.000000  -0.001899  -0.174477   0.000000 2
Si   -23.083932   161.122198     1.920113  -0.002607  -0.167303   0.000000 2
Si   -19.009837   161.118257     0.000000  -0.001687  -0.171244   0.000000 2
Si   -14.935825   159.199311     0.000000  -0.000850  -0.170077   0.000000 2
Si   -14.935603   163.030371     0.000000  -0.000628  -0.179243   0.000000 2
Si   -17.651799   161.117062     1.920113  -0.001374  -0.172439   0.000000 2
Si   -13.577671   161.113851     0.000000  -0.000421  -0.175650   0.000000 2
Si    -9.503650   159.195756     0.000000   0.000425  -0.173632   0.000000 2
Si    -9.503394   163.026641     0.000000   0.000681  -0.182973   0.000000 2
Si   -12.219624   161.112908     1.920113  -0.000099  -0.176594   0.000000 2
Si    -8.145472   161.110472     0.000000   0.000878  -0.179030   0.000000 2
Si    -4.071452   159.193244     0.000000   0.001723  -0.176144   0.000000 2
Si    -4.071159   163.024005     0.000000   0.002016  -0.185610   0.000000 2
Si    -6.787419   161.109794     1.920113   0.001206  -0.179707   0.000000 2
Si    -2.713252   161.108172     0.000000   0.002198  -0.181329   0.000000 2
Si     1.360757   159.191815     0.000000   0.003032  -0.177573   0.000000 2
Si     1.361089   163.022505     0.000000   0.003364  -0.187110   0.000000 2
Si    -1.355195   161.107771     1.920113   0.002530  -0.181731   0.000000 2
Si     2.718978   161.106990     0.000000   0.003528  -0.182511   0.000000 2
Si     4.077035   161.106873     1.920113   0.003860  -0.182628   0.000000 2
Si   -54.317341   155.416631     1.920113  -0.008341  -0.112531   0.000000 2
Si   -54.317232   159.250127     1.920113  -0.008232  -0.119261   0.000000 2
Si   -55.675176   157.335658     1.920113  -0.008451  -0.113617   0.000000 2
Si   -51.601492   157.328917     0.000000  -0.007942  -0.120358   0.000000 2
Si   -48.885714   155.408002     1.920113  -0.007614  -0.121160   0.000000 2
Si   -48.885611   159.241103     1.920113  -0.007511  -0.128285   0.000000 2
Si   -50.243582   157.326724     1.920113  -0.007757  -0.122551   0.000000 2
Si   -46.169808   157.320325     0.000000  -0.007158  -0.128950   0.000000 2
Si   -43.453975   155.399851     1.920113  -0.006775  -0.129311   0.000000 2
Si   -43.453871   159.232575     1.920113  -0.006671  -0.136813   0.000000 2
Si   -44.811870   157.318257     1.920113  -0.006945  -0.131018   0.000000 2
Si   -40.738016   157.312263     0.000000  -0.006266  -0.137012   0.000000 2
Si   -38.022137   155.392262     1.920113  -0.005837  -0.136900   0.000000 2
Si   -38.022025   159.224628     1.920113  -0.005725  -0.144760   0.000000 2
Si   -39.380052   157.310340     1.920113  -0.006027  -0.138935   0.000000 2
Si   -35.306128   157.304814     0.000000  -0.005278  -0.144461   0.000000 2
Si   -32.590213   155.385316     1.920113  -0.004813  -0.143846   0.000000 2
Si   -32.590088   159.217351     1.920113  -0.004688  -0.152037   0.000000 2
Si   -33.948142   157.303058     1.920113  -0.005017  -0.146217   0.000000 2
Si   -29.874158   157.298063     0.000000  -0.004208  -0.151212   0.000000 2
Si   -27.158217   155.379093     1.920113  -0.003717  -0.150069   0.000000 2
Si   -27.158072   159.210828     1.920113  -0.003572  -0.158560   0.000000 2
Si   -28.516154   157.296494     1.920113  -0.003929  -0.152781   0.000000 2
Si   -24.442120   157.292090     0.000000  -0.003070  -0.157185   0.000000 2
Si   -21.726161   155.373668     1.920113  -0.002561  -0.155494   0.000000 2
Si   -21.725993   159.205138     1.920113  -0.002393  -0.164250   0.000000 2
Si   -23.084101   157.290726     1.920113  -0.002776  -0.158549   0.000000 2
Si   -19.010027   157.286969     0.000000  -0.001877  -0.162306   0.000000 2
Si   -16.294060   155.369110     1.920113  -0.001360  -0.160052   0.000000 2
Si   -16.293864   159.200356     1.920113  -0.001164  -0.169032   0.000000 2
Si   -17.651997   157.285830     1.920113  -0.001572  -0.163445   0.000000 2
Si   -13.577892   157.282769     0.000000  -0.000642  -0.166506   0.000000 2
Si   -10.861924   155.365482     1.920113  -0.000124  -0.163679   0.000000 2
Si   -10.861696   159.196549     1.920113   0.000104  -0.172839   0.000000 2
Si   -12.219853   157.281870     1.920113  -0.000328  -0.167405   0.000000 2
Si    -8.145727   157.279549     0.000000   0.000623  -0.169726   0.000000 2
Si    -5.429765   155.362837     1.920113   0.001135  -0.166325   0.000000 2
Si    -5.429503   159.193772     1.920113   0.001397  -0.175616   0.000000 2
Si    -6.787682   157.278903     1.920113   0.000943  -0.170372   0.000000 2
Si    -2.713543   157.277358     0.000000   0.001907  -0.171917   0.000000 2
Si     0.002407   155.361216     1.920113   0.002407  -0.167946   0.000000 2
Si     0.002704   159.192069     1.920113   0.002704  -0.177319   0.000000 2
Si    -1.355495   157.276976     1.920113   0.002230  -0.172299   0.000000 2
Si     2.718650   157.276233     0.000000   0.003200  -0.173042   0.000000 2
Si     5.434583   155.360647     1.920113   0.003683  -0.168515   0.000000 2
Si     5.434916   159.191472     1.920113   0.004016  -0.177916   0.000000 2
Si     4.076698   157.276121     1.920113   0.003523  -0.173154   0.000000 2
Si   -52.959063   166.914468     0.000000  -0.007788  -0.135372   0.000000 2
Si   -52.958890   170.747712     0.000000  -0.007615  -0.142355   0.000000 2
Si   -55.674740   168.836250     1.920113  -0.008015  -0.133704   0.000000 2
Si   -51.601085   168.828563     0.000000  -0.007535  -0.141391   0.000000 2
Si   -47.527427   166.904736     0.000000  -0.007052  -0.145105   0.000000 2
Si   -47.527266   170.737543     0.000000  -0.006891  -0.152523   0.000000 2
Si   -50.243182   168.826059     1.920113  -0.007357  -0.143895   0.000000 2
Si   -46.169420   168.818745     0.000000  -0.006770  -0.151209   0.000000 2
Si   -42.095659   166.895555     0.000000  -0.006184  -0.154286   0.000000 2
Si   -42.095502   170.727944     0.000000  -0.006027  -0.162123   0.000000 2
Si   -44.811482   168.816378     1.920113  -0.006557  -0.153576   0.000000 2
Si   -40.737622   168.809513     0.000000  -0.005872  -0.160441   0.000000 2
Si   -36.663775   166.887024     0.000000  -0.005200  -0.162816   0.000000 2
Si   -36.663612   170.719018     0.000000  -0.005037  -0.171049   0.000000 2
Si   -39.379654   168.807308     1.920113  -0.005629  -0.162646   0.000000 2
Si   -35.305707   168.800967     0.000000  -0.004857  -0.168987   0.000000 2
Si   -31.231787   166.879240     0.000000  -0.004112  -0.170601   0.000000 2
Si   -31.231611   170.710868     0.000000  -0.003936  -0.179199   0.000000 2
Si   -33.947711   168.798949     1.920113  -0.004586  -0.171004   0.000000 2
Si   -29.873688   168.793208     0.000000  -0.003738  -0.176746   0.000000 2
Si   -25.799713   166.872297     0.000000  -0.002938  -0.177543   0.000000 2
Si   -25.799514   170.703596     0.000000  -0.002739  -0.186471   0.000000 2
Si   -28.515669   168.791402     1.920113  -0.003444  -0.178552   0.000000 2
Si   -24.441582   168.786331     0.000000  -0.002532  -0.183622   0.000000 2
Si   -20.367566   166.866286     0.000000  -0.001691  -0.183554   0.000000 2
Si   -20.367338   170.697295     0.000000  -0.001463  -0.192771   0.000000 2
Si   -23.083544   168.784761     1.920113  -0.002219  -0.185193   0.000000 2
Si   -19.009404   168.780429     0.000000  -0.001254  -0.189525   0.000000 2
Si   -14.935362   166.861288     0.000000  -0.000387  -0.188552   0.000000 2
Si   -14.935099   170.692055     0.000000  -0.000124  -0.198012   0.000000 2
Si   -17.651350   168.779115     1.920113  -0.000925  -0.190839   0.000000 2
Si   -13.577170   168.775582     0.000000   0.000080  -0.194372   0.000000 2
Si    -9.503115   166.857375     0.000000   0.000960  -0.192465   0.000000 2
Si    -9.502813   170.687951     0.000000   0.001262  -0.202116   0.000000 2
Si   -12.219105   168.774544     1.920113   0.000420  -0.195409   0.000000 2
Si    -8.144895   168.771863     0.000000   0.001455  -0.198091   0.000000 2
Si    -4.070840   166.854609     0.000000   0.002335  -0.195232   0.000000 2
Si    -4.070495   170.685048     0.000000   0.002680  -0.205018   0.000000 2
Si    -6.786822   168.771117     1.920113   0.001803  -0.198837   0.000000 2
Si    -2.712594   168.769330     0.000000   0.002856  -0.200623   0.000000 2
Si     1.361449   166.853034     0.000000   0.003724  -0.196806   0.000000 2
Si     1.361840   170.683396     0.000000   0.004115  -0.206671   0.000000 2
Si    -1.354516   168.768888     1.920113   0.003209  -0.201066   0.000000 2
Si     2.719719   168.768028     0.000000   0.004269  -0.201925   0.000000 2
Si     4.077798   168.767898     1.920113   0.004623  -0.202055   0.000000 2
Si   -54.317102   163.083575     1.920113  -0.008102  -0.126039   0.000000 2
Si   -54.316950   166.916977     1.920113  -0.007950  -0.132864   0.000000 2
Si   -55.674909   165.002762     1.920113  -0.008184  -0.126965   0.000000 2
Si   -51.601242   164.995402     0.000000  -0.007692  -0.134325   0.000000 2
Si   -48.885489   163.074143     1.920113  -0.007389  -0.135471   0.000000 2
Si   -48.885348   166.907121     1.920113  -0.007248  -0.142719   0.000000 2
Si   -50.243336   164.993006     1.920113  -0.007511  -0.136722   0.000000 2
Si   -46.169568   164.986008     0.000000  -0.006918  -0.143719   0.000000 2
Si   -43.453750   163.065223     1.920113  -0.006550  -0.144392   0.000000 2
Si   -43.453613   166.897793     1.920113  -0.006413  -0.152047   0.000000 2
Si   -44.811630   164.983745     1.920113  -0.006705  -0.145983   0.000000 2
Si   -40.737770   164.977181     0.000000  -0.006020  -0.152546   0.000000 2
Si   -38.021899   163.056905     1.920113  -0.005599  -0.152709   0.000000 2
Si   -38.021756   166.889090     1.920113  -0.005456  -0.160750   0.000000 2
Si   -39.379803   164.975074     1.920113  -0.005778  -0.154654   0.000000 2
Si   -35.305863   164.969016     0.000000  -0.005013  -0.160712   0.000000 2
Si   -32.589948   163.049284     1.920113  -0.004548  -0.160331   0.000000 2
Si   -32.589793   166.881110     1.920113  -0.004393  -0.168730   0.000000 2
Si   -33.947871   164.967089     1.920113  -0.004746  -0.162639   0.000000 2
Si   -29.873860   164.961606     0.000000  -0.003910  -0.168121   0.000000 2
Si   -27.157914   163.042448     1.920113  -0.003414  -0.167166   0.000000 2
Si   -27.157739   166.873949     1.920113  -0.003239  -0.175891   0.000000 2
Si   -28.515847   164.959883     1.920113  -0.003622  -0.169845   0.000000 2
Si   -24.441778   164.955044     0.000000  -0.002728  -0.174684   0.000000 2
Si   -21.725809   163.036483     1.920113  -0.002209  -0.173131   0.000000 2
Si   -21.725608   166.867697     1.920113  -0.002008  -0.182143   0.000000 2
Si   -23.083746   164.953545     1.920113  -0.002421  -0.176182   0.000000 2
Si   -19.009630   164.949413     0.000000  -0.001480  -0.180315   0.000000 2
Si   -16.293650   163.031468     1.920113  -0.000950  -0.178146   0.000000 2
Si   -16.293417   166.862438     1.920113  -0.000717  -0.187402   0.000000 2
Si   -17.651584   164.948160     1.920113  -0.001159  -0.181568   0.000000 2
Si   -13.577431   164.944791     0.000000  -0.000181  -0.184937   0.000000 2
Si   -10.861449   163.027473     1.920113   0.000351  -0.182141   0.000000 2
Si   -10.861180   166.858248     1.920113   0.000620  -0.191592   0.000000 2
Si   -12.219375   164.943801     1.920113   0.000150  -0.185926   0.000000 2
Si    -8.145196   164.941245     0.000000   0.001154  -0.188482   0.000000 2
Si    -5.429219   163.024559     1.920113   0.001681  -0.185056   0.000000 2
Si    -5.428911   166.855190     1.920113   0.001989  -0.194650   0.000000 2
Si    -6.787132   164.940534     1.920113   0.001493  -0.189193   0.000000 2
Si    -2.712937   164.938832     0.000000   0.002513  -0.190895   0.000000 2
Si     0.003027   163.022771     1.920113   0.003027  -0.186843   0.000000 2
Si     0.003376   166.853314     1.920113   0.003376  -0.196526   0.000000 2
Si    -1.354870   164.938411     1.920113   0.002855  -0.191317   0.000000 2
Si     2.719334   164.937591     0.000000   0.003884  -0.192136   0.000000 2
Si     5.435277   163.022144     1.920113   0.004377  -0.187471   0.000000 2
Si     5.435668   166.852655     1.920113   0.004768  -0.197186   0.000000 2
Si     4.077401   164.937468     1.920113   0.004226  -0.192259   0.000000 2
Si   -52.958691   174.580905     0.000000  -0.007416  -0.149388   0.000000 2
Si   -52.958463   178.414049     0.000000  -0.007188  -0.156470   0.000000 2
Si   -55.674318   176.503099     1.920113  -0.007593  -0.147307   0.000000 2
Si   -51.600697   176.494720     0.000000  -0.007147  -0.155686   0.000000 2
Si   -47.527083   174.570283     0.000000  -0.006708  -0.160010   0.000000 2
Si   -47.526875   178.402955     0.000000  -0.006500  -0.167564   0.000000 2
Si   -50.242802   176.491988     1.920113  -0.006977  -0.158418   0.000000 2
Si   -46.169058   176.484003     0.000000  -0.006408  -0.166403   0.000000 2
Si   -42.095325   174.560248     0.000000  -0.005850  -0.170045   0.000000 2
Si   -42.095125   178.392465     0.000000  -0.005650  -0.178054   0.000000 2
Si   -44.811124   176.481416     1.920113  -0.006199  -0.168990   0.000000 2
Si   -40.737267   176.473909     0.000000  -0.005517  -0.176497   0.000000 2
Si   -36.663431   174.550910     0.000000  -0.004856  -0.179383   0.000000 2
Si   -36.663229   178.382697     0.000000  -0.004654  -0.187822   0.000000 2
Si   -39.379297   176.471496     1.920113  -0.005272  -0.178910   0.000000 2
Si   -35.305338   176.464553     0.000000  -0.004488  -0.185853   0.000000 2
Si   -31.231416   174.542378     0.000000  -0.003741  -0.187914   0.000000 2
Si   -31.231201   178.373766     0.000000  -0.003526  -0.196753   0.000000 2
Si   -33.947337   176.462342     1.920113  -0.004212  -0.188064   0.000000 2
Si   -29.873288   176.456047     0.000000  -0.003338  -0.194359   0.000000 2
Si   -25.799297   174.534761     0.000000  -0.002522  -0.195532   0.000000 2
Si   -25.799059   178.365788     0.000000  -0.002284  -0.204731   0.000000 2
Si   -28.515259   176.454066     1.920113  -0.003034  -0.196340   0.000000 2
Si   -24.441133   176.448501     0.000000  -0.002083  -0.201905   0.000000 2
Si   -20.367091   174.528159     0.000000  -0.001216  -0.202134   0.000000 2
Si   -20.366821   178.358869     0.000000  -0.000946  -0.211650   0.000000 2
Si   -23.083080   176.446777     1.920113  -0.001755  -0.203629   0.000000 2
Si   -19.008891   176.442017     0.000000  -0.000741  -0.208389   0.000000 2
Si   -14.934815   174.522664     0.000000   0.000160  -0.207629   0.000000 2
Si   -14.934506   178.353108     0.000000   0.000469  -0.217411   0.000000 2
Si   -17.650819   176.440573     1.920113  -0.000394  -0.209833   0.000000 2
Si   -13.576580   176.436688     0.000000   0.000670  -0.213718   0.000000 2
Si    -9.502486   174.518360     0.000000   0.001589  -0.211933   0.000000 2
Si    -9.502131   178.348594     0.000000   0.001944  -0.221925   0.000000 2
Si   -12.218493   176.435547     1.920113   0.001032  -0.214859   0.000000 2
Si    -8.144218   176.432596     0.000000   0.002132  -0.217810   0.000000 2
Si    -4.070121   174.515315     0.000000   0.003054  -0.214978   0.000000 2
Si    -4.069717   178.345398     0.000000   0.003458  -0.225121   0.000000 2
Si    -6.786121   176.431775     1.920113   0.002504  -0.218631   0.000000 2
Si    -2.711822   176.429808     0.000000   0.003628  -0.220598   0.000000 2
Si     1.362262   174.513580     0.000000   0.004537  -0.216713   0.000000 2
Si     1.362719   178.343578     0.000000   0.004994  -0.226941   0.000000 2
Si    -1.353720   176.429321     1.920113   0.004005  -0.221085   0.000000 2
Si     2.720589   176.428373     0.000000   0.005139  -0.222033   0.000000 2
Si     4.078693   176.428230     1.920113   0.005518  -0.222176   0.000000 2
Si   -54.316773   170.750331     1.920113  -0.007773  -0.139736   0.000000 2
Si   -54.316568   174.583640     1.920113  -0.007568  -0.146653   0.000000 2
Si   -55.674544   172.669695     1.920113  -0.007819  -0.140485   0.000000 2
Si   -51.600904   172.661669     0.000000  -0.007354  -0.148511   0.000000 2
Si   -48.885186   170.740036     1.920113  -0.007086  -0.150030   0.000000 2
Si   -48.885000   174.572888     1.920113  -0.006900  -0.157405   0.000000 2
Si   -50.243005   172.659053     1.920113  -0.007180  -0.151127   0.000000 2
Si   -46.169251   172.651410     0.000000  -0.006601  -0.158770   0.000000 2
Si   -43.453456   170.730285     1.920113  -0.006256  -0.159782   0.000000 2
Si   -43.453278   174.562696     1.920113  -0.006078  -0.167597   0.000000 2
Si   -44.811314   172.648936     1.920113  -0.006389  -0.161244   0.000000 2
Si   -40.737455   172.641756     0.000000  -0.005705  -0.168424   0.000000 2
Si   -38.021596   170.721180     1.920113  -0.005296  -0.168886   0.000000 2
Si   -38.021416   174.553173     1.920113  -0.005116  -0.177120   0.000000 2
Si   -39.379486   172.639449     1.920113  -0.005461  -0.170731   0.000000 2
Si   -35.305532   172.632814     0.000000  -0.004682  -0.177366   0.000000 2
Si   -32.589621   170.712827     1.920113  -0.004221  -0.177240   0.000000 2
Si   -32.589430   174.544429     1.920113  -0.004030  -0.185864   0.000000 2
Si   -33.947534   172.630702     1.920113  -0.004409  -0.179478   0.000000 2
Si   -29.873498   172.624689     0.000000  -0.003548  -0.185490   0.000000 2
Si   -27.157547   170.705326     1.920113  -0.003047  -0.184740   0.000000 2
Si   -27.157336   174.536574     1.920113  -0.002836  -0.193719   0.000000 2
Si   -28.515473   172.622798     1.920113  -0.003248  -0.187382   0.000000 2
Si   -24.441368   172.617486     0.000000  -0.002318  -0.192694   0.000000 2
Si   -21.725389   170.698774     1.920113  -0.001789  -0.191292   0.000000 2
Si   -21.725150   174.529709     1.920113  -0.001550  -0.200584   0.000000 2
Si   -23.083322   172.615840     1.920113  -0.001997  -0.194340   0.000000 2
Si   -19.009158   172.611299     0.000000  -0.001008  -0.198881   0.000000 2
Si   -16.293164   170.693261     1.920113  -0.000464  -0.196805   0.000000 2
Si   -16.292889   174.523929     1.920113  -0.000189  -0.206363   0.000000 2
Si   -17.651096   172.609922     1.920113  -0.000671  -0.200258   0.000000 2
Si   -13.576887   172.606217     0.000000   0.000363  -0.203963   0.000000 2
Si   -10.860888   170.688867     1.920113   0.000912  -0.201200   0.000000 2
Si   -10.860572   174.519321     1.920113   0.001228  -0.210972   0.000000 2
Si   -12.218811   172.605129     1.920113   0.000714  -0.205051   0.000000 2
Si    -8.144570   172.602316     0.000000   0.001780  -0.207864   0.000000 2
Si    -5.428577   170.685658     1.920113   0.002323  -0.204408   0.000000 2
Si    -5.428215   174.515955     1.920113   0.002685  -0.214338   0.000000 2
Si    -6.786485   172.601533     1.920113   0.002140  -0.208647   0.000000 2
Si    -2.712223   172.599659     0.000000   0.003227  -0.210521   0.000000 2
Si     0.003755   170.683689     1.920113   0.003755  -0.206377   0.000000 2
Si     0.004165   174.513889     1.920113   0.004165  -0.216404   0.000000 2
Si    -1.354134   172.599195     1.920113   0.003591  -0.210985   0.000000 2
Si     2.720137   172.598292     0.000000   0.004687  -0.211888   0.000000 2
Si     5.436093   170.682997     1.920113   0.005193  -0.207069   0.000000 2
Si     5.436552   174.513162     1.920113   0.005652  -0.217131   0.000000 2
Si     4.078228   172.598156     1.920113   0.005053  -0.212024   0.000000 2
Si   -52.958203   182.247143     0.000000  -0.006928  -0.163602   0.000000 2
Si   -52.957908   186.080190     0.000000  -0.006633  -0.170782   0.000000 2
Si   -55.673765   184.169789     1.920113  -0.007040  -0.161069   0.000000 2
Si   -51.600190   184.160661     0.000000  -0.006640  -0.170198   0.000000 2
Si   -47.526638   182.235557     0.000000  -0.006263  -0.175188   0.000000 2
Si   -47.526371   186.068091     0.000000  -0.005996  -0.182881   0.000000 2
Si   -50.242308   184.157682     1.920113  -0.006483  -0.173176   0.000000 2
Si   -46.168593   184.148967     0.000000  -0.005943  -0.181892   0.000000 2
Si   -42.094901   182.224593     0.000000  -0.005426  -0.186152   0.000000 2
Si   -42.094649   186.056631     0.000000  -0.005174  -0.194341   0.000000 2
Si   -44.810665   184.146142     1.920113  -0.005740  -0.184717   0.000000 2
Si   -40.736819   184.137935     0.000000  -0.005069  -0.192923   0.000000 2
Si   -36.663004   182.214375     0.000000  -0.004429  -0.196370   0.000000 2
Si   -36.662754   186.045943     0.000000  -0.004179  -0.205029   0.000000 2
Si   -39.378850   184.135295     1.920113  -0.004825  -0.195563   0.000000 2
Si   -35.304884   184.127694     0.000000  -0.004034  -0.203165   0.000000 2
Si   -31.230964   182.205027     0.000000  -0.003289  -0.205718   0.000000 2
Si   -31.230704   186.036156     0.000000  -0.003029  -0.214815   0.000000 2
Si   -33.946877   184.125272     1.920113  -0.003752  -0.205587   0.000000 2
Si   -29.872805   184.118371     0.000000  -0.002855  -0.212488   0.000000 2
Si   -25.798799   182.196670     0.000000  -0.002024  -0.214075   0.000000 2
Si   -25.798515   186.027402     0.000000  -0.001740  -0.223570   0.000000 2
Si   -28.514764   184.116198     1.920113  -0.002539  -0.214661   0.000000 2
Si   -24.440598   184.110089     0.000000  -0.001548  -0.220770   0.000000 2
Si   -20.366528   182.189419     0.000000  -0.000653  -0.221326   0.000000 2
Si   -20.366210   186.019801     0.000000  -0.000335  -0.231170   0.000000 2
Si   -23.082529   184.108195     1.920113  -0.001204  -0.222664   0.000000 2
Si   -19.008285   184.102965     0.000000  -0.000135  -0.227894   0.000000 2
Si   -14.934171   182.183379     0.000000   0.000804  -0.227366   0.000000 2
Si   -14.933808   186.013467     0.000000   0.001167  -0.237505   0.000000 2
Si   -17.650193   184.101377     1.920113   0.000232  -0.229481   0.000000 2
Si   -13.575886   184.097105     0.000000   0.001364  -0.233754   0.000000 2
Si    -9.501748   182.178643     0.000000   0.002327  -0.232102   0.000000 2
Si    -9.501332   186.008498     0.000000   0.002743  -0.242473   0.000000 2
Si   -12.217776   184.095849     1.920113   0.001749  -0.235010   0.000000 2
Si    -8.143423   184.092601     0.000000   0.002927  -0.238257   0.000000 2
Si    -4.069279   182.175290     0.000000   0.003896  -0.235456   0.000000 2
Si    -4.068806   186.004978     0.000000   0.004369  -0.245993   0.000000 2
Si    -6.785300   184.091697     1.920113   0.003325  -0.239162   0.000000 2
Si    -2.710918   184.089530     0.000000   0.004532  -0.241328   0.000000 2
Si     1.363213   182.173379     0.000000   0.005488  -0.237367   0.000000 2
Si     1.363748   186.002972     0.000000   0.006023  -0.248000   0.000000 2
Si    -1.352788   184.088993     1.920113   0.004937  -0.241865   0.000000 2
Si     2.721607   184.087948     0.000000   0.006157  -0.242910   0.000000 2
Si     4.079739   184.087790     1.920113   0.006564  -0.243068   0.000000 2
Si   -54.316334   178.416903     1.920113  -0.007334  -0.153616   0.000000 2
Si   -54.316066   182.250122     1.920113  -0.007066  -0.160623   0.000000 2
Si   -55.674060   180.336463     1.920113  -0.007335  -0.154169   0.000000 2
Si   -51.600459   180.327717     0.000000  -0.006909  -0.162915   0.000000 2
Si   -48.884787   178.405676     1.920113  -0.006687  -0.164843   0.000000 2
Si   -48.884546   182.238401     1.920113  -0.006446  -0.172345   0.000000 2
Si   -50.242570   180.324865     1.920113  -0.006745  -0.165768   0.000000 2
Si   -46.168839   180.316522     0.000000  -0.006189  -0.174110   0.000000 2
Si   -43.453077   178.395024     1.920113  -0.005877  -0.175495   0.000000 2
Si   -43.452851   182.227269     1.920113  -0.005651  -0.183476   0.000000 2
Si   -44.810908   180.313819     1.920113  -0.005983  -0.176814   0.000000 2
Si   -40.737056   180.305969     0.000000  -0.005306  -0.184663   0.000000 2
Si   -38.021216   178.385064     1.920113  -0.004916  -0.185455   0.000000 2
Si   -38.020992   182.216853     1.920113  -0.004692  -0.193893   0.000000 2
Si   -39.379086   180.303446     1.920113  -0.005061  -0.187187   0.000000 2
Si   -35.305123   180.296181     0.000000  -0.004273  -0.194451   0.000000 2
Si   -32.589220   178.375914     1.920113  -0.003820  -0.194605   0.000000 2
Si   -32.588987   182.207276     1.920113  -0.003587  -0.203470   0.000000 2
Si   -33.947119   180.293867     1.920113  -0.003994  -0.196765   0.000000 2
Si   -29.873058   180.287276     0.000000  -0.003108  -0.203356   0.000000 2
Si   -27.157105   178.367687     1.920113  -0.002605  -0.202832   0.000000 2
Si   -27.156851   182.198660     1.920113  -0.002351  -0.212085   0.000000 2
Si   -28.515023   180.285201     1.920113  -0.002798  -0.205431   0.000000 2
Si   -24.440877   180.279371     0.000000  -0.001827  -0.211261   0.000000 2
Si   -21.724889   178.360494     1.920113  -0.001289  -0.210025   0.000000 2
Si   -21.724605   182.191122     1.920113  -0.001005  -0.219623   0.000000 2
Si   -23.082817   180.277564     1.920113  -0.001492  -0.213069   0.000000 2
Si   -19.008601   180.272575     0.000000  -0.000451  -0.218057   0.000000 2
Si   -16.292591   178.354435     1.920113   0.000109  -0.216084   0.000000 2
Si   -16.292267   182.184770     1.920113   0.000433  -0.225975   0.000000 2
Si   -17.650519   180.271061     1.920113  -0.000094  -0.219571   0.000000 2
Si   -13.576247   180.266987     0.000000   0.001003  -0.223645   0.000000 2
Si   -10.860229   178.349602     1.920113   0.001571  -0.220918   0.000000 2
Si   -10.859858   182.179700     1.920113   0.001942  -0.231045   0.000000 2
Si   -12.218149   180.265790     1.920113   0.001376  -0.224842   0.000000 2
Si    -8.143836   180.262695     0.000000   0.002514  -0.227938   0.000000 2
Si    -5.427823   178.346070     1.920113   0.003077  -0.224449   0.000000 2
Si    -5.427399   182.175995     1.920113   0.003501  -0.234750   0.000000 2
Si    -6.785727   180.261833     1.920113   0.002898  -0.228799   0.000000 2
Si    -2.711388   180.259769     0.000000   0.004062  -0.230864   0.000000 2
Si     0.004609   178.343902     1.920113   0.004609  -0.226617   0.000000 2
Si     0.005089   182.173719     1.920113   0.005089  -0.237027   0.000000 2
Si    -1.353272   180.259257     1.920113   0.004453  -0.231375   0.000000 2
Si     2.721079   180.258262     0.000000   0.005629  -0.232370   0.000000 2
Si     5.437049   178.343138     1.920113   0.006149  -0.227381   0.000000 2
Si     5.437586   182.172917     1.920113   0.006686  -0.237829   0.000000 2
Si     4.079196   180.258112     1.920113   0.006021  -0.232520   0.000000 2
Si   -52.957573   189.913190     0.000000  -0.006298  -0.178008   0.000000 2
Si   -52.957195   193.746145     0.000000  -0.005920  -0.185279   0.000000 2
Si   -55.673050   191.836334     1.920113  -0.006325  -0.174977   0.000000 2
Si   -51.599539   191.826391     0.000000  -0.005989  -0.184920   0.000000 2
Si   -47.526070   189.900555     0.000000  -0.005695  -0.190642   0.000000 2
Si   -47.525731   193.732951     0.000000  -0.005356  -0.198473   0.000000 2
Si   -50.241674   191.823144     1.920113  -0.005849  -0.188167   0.000000 2
Si   -46.168002   191.813633     0.000000  -0.005352  -0.197678   0.000000 2
Si   -42.094367   189.888577     0.000000  -0.004892  -0.202621   0.000000 2
Si   -42.094052   193.720429     0.000000  -0.004577  -0.210995   0.000000 2
Si   -44.810085   191.810546     1.920113  -0.005160  -0.200764   0.000000 2
Si   -40.736260   191.801574     0.000000  -0.004510  -0.209737   0.000000 2
Si   -36.662477   189.877395     0.000000  -0.003902  -0.213803   0.000000 2
Si   -36.662170   193.708729     0.000000  -0.003595  -0.222695   0.000000 2
Si   -39.378294   191.798685     1.920113  -0.004269  -0.212626   0.000000 2
Si   -35.304327   191.790360     0.000000  -0.003477  -0.220951   0.000000 2
Si   -31.230417   189.867149     0.000000  -0.002742  -0.224049   0.000000 2
Si   -31.230101   193.697999     0.000000  -0.002426  -0.233425   0.000000 2
Si   -33.946316   191.787706     1.920113  -0.003191  -0.223605   0.000000 2
Si   -29.872221   191.780136     0.000000  -0.002271  -0.231175   0.000000 2
Si   -25.798205   189.857976     0.000000  -0.001430  -0.233222   0.000000 2
Si   -25.797866   193.688386     0.000000  -0.001091  -0.243038   0.000000 2
Si   -28.514170   191.777751     1.920113  -0.001945  -0.233560   0.000000 2
Si   -24.439961   191.771041     0.000000  -0.000911  -0.240270   0.000000 2
Si   -20.365863   189.850007     0.000000   0.000012  -0.241190   0.000000 2
Si   -20.365487   193.680029     0.000000   0.000388  -0.251395   0.000000 2
Si   -23.081875   191.768960     1.920113  -0.000550  -0.242351   0.000000 2
Si   -19.007570   191.763209     0.000000   0.000580  -0.248102   0.000000 2
Si   -14.933415   189.843363     0.000000   0.001560  -0.247835   0.000000 2
Si   -14.932988   193.673056     0.000000   0.001987  -0.258368   0.000000 2
Si   -17.649455   191.761462     1.920113   0.000970  -0.249849   0.000000 2
Si   -13.575073   191.756759     0.000000   0.002177  -0.254552   0.000000 2
Si    -9.500883   189.838148     0.000000   0.003192  -0.253050   0.000000 2
Si    -9.500397   193.667582     0.000000   0.003678  -0.263842   0.000000 2
Si   -12.216935   191.755375     1.920113   0.002590  -0.255936   0.000000 2
Si    -8.142494   191.751797     0.000000   0.003856  -0.259514   0.000000 2
Si    -4.068294   189.834453     0.000000   0.004881  -0.256745   0.000000 2
Si    -4.067741   193.663700     0.000000   0.005434  -0.267724   0.000000 2
Si    -6.784340   191.750800     1.920113   0.004285  -0.260511   0.000000 2
Si    -2.709862   191.748411     0.000000   0.005588  -0.262900   0.000000 2
Si     1.364325   189.832345     0.000000   0.006600  -0.258853   0.000000 2
Si     1.364949   193.661485     0.000000   0.007224  -0.269939   0.000000 2
Si    -1.351698   191.747819     1.920113   0.006027  -0.263492   0.000000 2
Si     2.722797   191.746665     0.000000   0.007347  -0.264646   0.000000 2
Si     4.080962   191.746490     1.920113   0.007787  -0.264821   0.000000 2
Si   -54.315761   186.083299     1.920113  -0.006761  -0.167673   0.000000 2
Si   -54.315416   189.916435     1.920113  -0.006416  -0.174763   0.000000 2
Si   -55.673430   188.003078     1.920113  -0.006705  -0.168006   0.000000 2
Si   -51.599884   187.993552     0.000000  -0.006334  -0.177533   0.000000 2
Si   -48.884273   186.071061     1.920113  -0.006173  -0.179911   0.000000 2
Si   -48.883965   189.903658     1.920113  -0.005865  -0.187540   0.000000 2
Si   -50.242010   187.990441     1.920113  -0.006185  -0.180643   0.000000 2
Si   -46.168315   187.981337     0.000000  -0.005665  -0.189747   0.000000 2
Si   -43.452596   186.059429     1.920113  -0.005396  -0.191543   0.000000 2
Si   -43.452311   189.891502     1.920113  -0.005111  -0.199695   0.000000 2
Si   -44.810392   187.978385     1.920113  -0.005467  -0.192700   0.000000 2
Si   -40.736555   187.969804     0.000000  -0.004805  -0.201281   0.000000 2
Si   -38.020743   186.048535     1.920113  -0.004443  -0.202437   0.000000 2
Si   -38.020466   189.880107     1.920113  -0.004166  -0.211090   0.000000 2
Si   -39.378587   187.967043     1.920113  -0.004562  -0.204042   0.000000 2
Si   -35.304620   187.959088     0.000000  -0.003770  -0.211996   0.000000 2
Si   -32.588730   186.038511     1.920113  -0.003330  -0.212461   0.000000 2
Si   -32.588447   189.869614     1.920113  -0.003047  -0.221584   0.000000 2
Si   -33.946611   187.956553     1.920113  -0.003486  -0.214532   0.000000 2
Si   -29.872526   187.949326     0.000000  -0.002576  -0.221759   0.000000 2
Si   -27.156574   186.029487     1.920113  -0.002074  -0.221485   0.000000 2
Si   -27.156271   189.860161     1.920113  -0.001771  -0.231036   0.000000 2
Si   -28.514481   187.947049     1.920113  -0.002256  -0.224035   0.000000 2
Si   -24.440294   187.940648     0.000000  -0.001244  -0.230437   0.000000 2
Si   -21.724296   186.021587     1.920113  -0.000696  -0.229385   0.000000 2
Si   -21.723960   189.851880     1.920113  -0.000360  -0.239318   0.000000 2
Si   -23.082216   187.938663     1.920113  -0.000891  -0.232422   0.000000 2
Si   -19.007943   187.933179     0.000000   0.000207  -0.237906   0.000000 2
Si   -16.291916   186.014926     1.920113   0.000784  -0.236046   0.000000 2
Si   -16.291535   189.844894     1.920113   0.001165  -0.246304   0.000000 2
Si   -17.649839   187.931514     1.920113   0.000586  -0.239570   0.000000 2
Si   -13.575496   187.927032     0.000000   0.001754  -0.244053   0.000000 2
Si   -10.859457   186.009607     1.920113   0.002343  -0.241364   0.000000 2
Si   -10.859022   189.839313     1.920113   0.002778  -0.251885   0.000000 2
Si   -12.217372   187.925714     1.920113   0.002153  -0.245371   0.000000 2
Si    -8.142977   187.922306     0.000000   0.003373  -0.248779   0.000000 2
Si    -5.426941   186.005719     1.920113   0.003959  -0.245253   0.000000 2
Si    -5.426445   189.835230     1.920113   0.004455  -0.255968   0.000000 2
Si    -6.784839   187.921356     1.920113   0.003786  -0.249728   0.000000 2
Si    -2.710410   187.919081     0.000000   0.005040  -0.252003   0.000000 2
Si     0.005608   186.003329     1.920113   0.005608  -0.247643   0.000000 2
Si     0.006169   189.832720     1.920113   0.006169  -0.258478   0.000000 2
Si    -1.352264   187.918518     1.920113   0.005461  -0.252567   0.000000 2
Si     2.722179   187.917420     0.000000   0.006729  -0.253664   0.000000 2
Si     5.438167   186.002486     1.920113   0.007267  -0.248486   0.000000 2
Si     5.438794   189.831834     1.920113   0.007894  -0.259364   0.000000 2
Si     4.080327   187.917254     1.920113   0.007152  -0.253831   0.000000 2
Si   -52.956769   197.579059     0.000000  -0.005494  -0.192592   0.000000 2
Si   -52.956289   201.411933     0.000000  -0.005014  -0.199944   0.000000 2
Si   -55.672139   199.502754     1.920113  -0.005414  -0.189010   0.000000 2
Si   -51.598711   199.491924     0.000000  -0.005161  -0.199840   0.000000 2
Si   -47.525351   197.565278     0.000000  -0.004976  -0.206372   0.000000 2
Si   -47.524924   201.397538     0.000000  -0.004549  -0.214339   0.000000 2
Si   -50.240871   199.488382     1.920113  -0.005046  -0.203381   0.000000 2
Si   -46.167257   199.477998     0.000000  -0.004607  -0.213765   0.000000 2
Si   -42.093700   197.552186     0.000000  -0.004225  -0.219464   0.000000 2
Si   -42.093308   201.383847     0.000000  -0.003833  -0.228030   0.000000 2
Si   -44.809356   199.474626     1.920113  -0.004431  -0.217138   0.000000 2
Si   -40.735564   199.464810     0.000000  -0.003814  -0.226954   0.000000 2
Si   -36.661829   197.539941     0.000000  -0.003254  -0.231709   0.000000 2
Si   -36.661452   201.371029     0.000000  -0.002877  -0.240848   0.000000 2
Si   -39.377605   199.461647     1.920113  -0.003580  -0.230117   0.000000 2
Si   -35.303645   199.452522     0.000000  -0.002795  -0.239241   0.000000 2
Si   -31.229754   197.528701     0.000000  -0.002079  -0.242949   0.000000 2
Si   -31.229373   201.359251     0.000000  -0.001698  -0.252625   0.000000 2
Si   -33.945632   199.449610     1.920113  -0.002507  -0.242154   0.000000 2
Si   -29.871518   199.441299     0.000000  -0.001568  -0.250465   0.000000 2
Si   -25.797496   197.518624     0.000000  -0.000721  -0.253026   0.000000 2
Si   -25.797091   201.348683     0.000000  -0.000316  -0.263194   0.000000 2
Si   -28.513456   199.438678     1.920113  -0.001231  -0.253086   0.000000 2
Si   -24.439203   199.431299     0.000000  -0.000153  -0.260464   0.000000 2
Si   -20.365078   197.509857     0.000000   0.000797  -0.261793   0.000000 2
Si   -20.364633   201.339481     0.000000   0.001242  -0.272395   0.000000 2
Si   -23.081099   199.429009     1.920113   0.000226  -0.262755   0.000000 2
Si   -19.006727   199.422676     0.000000   0.001423  -0.269088   0.000000 2
Si   -14.932526   197.502537     0.000000   0.002449  -0.269113   0.000000 2
Si   -14.932026   201.331794     0.000000   0.002949  -0.280083   0.000000 2
Si   -17.648586   199.420751     1.920113   0.001839  -0.271012   0.000000 2
Si   -13.574118   199.415566     0.000000   0.003132  -0.276198   0.000000 2
Si    -9.499871   197.496787     0.000000   0.004204  -0.274863   0.000000 2
Si    -9.499303   201.325751     0.000000   0.004772  -0.286125   0.000000 2
Si   -12.215949   199.414040     1.920113   0.003576  -0.277724   0.000000 2
Si    -8.141407   199.410091     0.000000   0.004943  -0.281673   0.000000 2
Si    -4.067144   197.492708     0.000000   0.006031  -0.278942   0.000000 2
Si    -4.066497   201.321463     0.000000   0.006678  -0.290414   0.000000 2
Si    -6.783217   199.408990     1.920113   0.005408  -0.282774   0.000000 2
Si    -2.708627   199.406350     0.000000   0.006823  -0.285413   0.000000 2
Si     1.365624   197.490380     0.000000   0.007899  -0.281271   0.000000 2
Si     1.366353   201.319012     0.000000   0.008628  -0.292864   0.000000 2
Si    -1.350426   199.405696     1.920113   0.007299  -0.286068   0.000000 2
Si     2.724186   199.404420     0.000000   0.008736  -0.287344   0.000000 2
Si     4.082390   199.404226     1.920113   0.009215  -0.287537   0.000000 2
Si   -54.315026   193.749532     1.920113  -0.006026  -0.181892   0.000000 2
Si   -54.314586   197.582593     1.920113  -0.005586  -0.189057   0.000000 2
Si   -55.672622   195.669558     1.920113  -0.005897  -0.181980   0.000000 2
Si   -51.599149   195.659181     0.000000  -0.005599  -0.192356   0.000000 2
Si   -48.883618   193.736192     1.920113  -0.005518  -0.195232   0.000000 2
Si   -48.883228   197.568665     1.920113  -0.005128  -0.202985   0.000000 2
Si   -50.241296   195.655790     1.920113  -0.005471  -0.195747   0.000000 2
Si   -46.167651   195.645853     0.000000  -0.005001  -0.205684   0.000000 2
Si   -43.451991   193.723488     1.920113  -0.004791  -0.207936   0.000000 2
Si   -43.451634   197.555386     1.920113  -0.004434  -0.216264   0.000000 2
Si   -44.809741   195.642627     1.920113  -0.004816  -0.208910   0.000000 2
Si   -40.735931   195.633243     0.000000  -0.004181  -0.218294   0.000000 2
Si   -38.020159   193.711568     1.920113  -0.003859  -0.219856   0.000000 2
Si   -38.019817   197.542914     1.920113  -0.003517  -0.228737   0.000000 2
Si   -39.377968   195.630221     1.920113  -0.003943  -0.221316   0.000000 2
Si   -35.304003   195.621506     0.000000  -0.003153  -0.230031   0.000000 2
Si   -32.588135   193.700582     1.920113  -0.002735  -0.230842   0.000000 2
Si   -32.587791   197.531408     1.920113  -0.002391  -0.240242   0.000000 2
Si   -33.945991   195.618726     1.920113  -0.002866  -0.232811   0.000000 2
Si   -29.871886   195.610796     0.000000  -0.001936  -0.240742   0.000000 2
Si   -27.155939   193.690677     1.920113  -0.001439  -0.240747   0.000000 2
Si   -27.155576   197.521026     1.920113  -0.001076  -0.250624   0.000000 2
Si   -28.513829   195.608296     1.920113  -0.001604  -0.243241   0.000000 2
Si   -24.439599   195.601261     0.000000  -0.000549  -0.250276   0.000000 2
Si   -21.723594   193.681993     1.920113   0.000006  -0.249431   0.000000 2
Si   -21.723196   197.511918     1.920113   0.000404  -0.259732   0.000000 2
Si   -23.081503   195.599078     1.920113  -0.000178  -0.252459   0.000000 2
Si   -19.007166   195.593044     0.000000   0.000984  -0.258493   0.000000 2
Si   -16.291123   193.674663     1.920113   0.001577  -0.256761   0.000000 2
Si   -16.290675   197.504225     1.920113   0.002025  -0.267426   0.000000 2
Si   -17.649038   195.591211     1.920113   0.001387  -0.260326   0.000000 2
Si   -13.574614   195.586274     0.000000   0.002636  -0.265263   0.000000 2
Si   -10.858552   193.668805     1.920113   0.003248  -0.262619   0.000000 2
Si   -10.858043   197.498072     1.920113   0.003757  -0.273578   0.000000 2
Si   -12.216461   195.584821     1.920113   0.003064  -0.266716   0.000000 2
Si    -8.141972   195.581063     0.000000   0.004378  -0.270474   0.000000 2
Si    -5.425910   193.664517     1.920113   0.004990  -0.266907   0.000000 2
Si    -5.425331   197.493567     1.920113   0.005569  -0.278083   0.000000 2
Si    -6.783800   195.580015     1.920113   0.004825  -0.271522   0.000000 2
Si    -2.709269   195.577505     0.000000   0.006181  -0.274032   0.000000 2
Si     0.006775   193.661880     1.920113   0.006775  -0.269544   0.000000 2
Si     0.007430   197.490794     1.920113   0.007430  -0.280856   0.000000 2
Si    -1.351087   195.576882     1.920113   0.006638  -0.274655   0.000000 2
Si     2.723464   195.575670     0.000000   0.008014  -0.275867   0.000000 2
Si     5.439473   193.660948     1.920113   0.008573  -0.270476   0.000000 2
Si     5.440205   197.489814     1.920113   0.009305  -0.281836   0.000000 2
Si     4.081648   195.575486     1.920113   0.008473  -0.276051   0.000000 2
Si   -52.955751   205.244771     0.000000  -0.004476  -0.207332   0.000000 2
Si   -52.955146   209.077577     0.000000  -0.003871  -0.214752   0.000000 2
Si   -55.670985   207.169079     1.920113  -0.004260  -0.203136   0.000000 2
Si   -51.597666   207.157277     0.000000  -0.004116  -0.214939   0.000000 2
Si   -47.524446   205.229732     0.000000  -0.004071  -0.222371   0.000000 2
Si   -47.523910   209.061862     0.000000  -0.003535  -0.230467   0.000000 2
Si   -50.239857   207.153412     1.920113  -0.004032  -0.218804   0.000000 2
Si   -46.166323   207.142068     0.000000  -0.003673  -0.230148   0.000000 2
Si   -42.092870   205.215411     0.000000  -0.003395  -0.236692   0.000000 2
Si   -42.092382   209.046878     0.000000  -0.002907  -0.245451   0.000000 2
Si   -44.808444   207.138379     1.920113  -0.003519  -0.233837   0.000000 2
Si   -40.734701   207.127630     0.000000  -0.002951  -0.244586   0.000000 2
Si   -36.661034   205.201988     0.000000  -0.002459  -0.250115   0.000000 2
Si   -36.660570   209.032817     0.000000  -0.001995  -0.259512   0.000000 2
Si   -39.376753   207.124162     1.920113  -0.002728  -0.248054   0.000000 2
Si   -35.302811   207.114148     0.000000  -0.001961  -0.258068   0.000000 2
Si   -31.228953   205.189643     0.000000  -0.001278  -0.262460   0.000000 2
Si   -31.228491   209.019870     0.000000  -0.000816  -0.272459   0.000000 2
Si   -33.944798   207.110949     1.920113  -0.001673  -0.261267   0.000000 2
Si   -29.870670   207.101810     0.000000  -0.000720  -0.270406   0.000000 2
Si   -25.796649   205.178554     0.000000   0.000126  -0.273549   0.000000 2
Si   -25.796166   209.008230     0.000000   0.000609  -0.284099   0.000000 2
Si   -28.512598   207.098925     1.920113  -0.000373  -0.273290   0.000000 2
Si   -24.438301   207.090798     0.000000   0.000749  -0.281418   0.000000 2
Si   -20.364149   205.168892     0.000000   0.001726  -0.283211   0.000000 2
Si   -20.363623   208.998078     0.000000   0.002252  -0.294251   0.000000 2
Si   -23.080176   207.088272     1.920113   0.001149  -0.283944   0.000000 2
Si   -19.005733   207.081285     0.000000   0.002417  -0.290931   0.000000 2
Si   -14.931483   205.160814     0.000000   0.003492  -0.291289   0.000000 2
Si   -14.930895   208.989583     0.000000   0.004080  -0.302745   0.000000 2
Si   -17.647563   207.079160     1.920113   0.002862  -0.293056   0.000000 2
Si   -13.572998   207.073431     0.000000   0.004252  -0.298785   0.000000 2
Si    -9.498687   205.154460     0.000000   0.005388  -0.297643   0.000000 2
Si    -9.498020   208.982898     0.000000   0.006055  -0.309431   0.000000 2
Si   -12.214792   207.071743     1.920113   0.004733  -0.300472   0.000000 2
Si    -8.140135   207.067375     0.000000   0.006215  -0.304841   0.000000 2
Si    -4.065798   205.149948     0.000000   0.007377  -0.302155   0.000000 2
Si    -4.065042   208.978147     0.000000   0.008133  -0.314182   0.000000 2
Si    -6.781904   207.066156     1.920113   0.006721  -0.306060   0.000000 2
Si    -2.707185   207.063233     0.000000   0.008265  -0.308983   0.000000 2
Si     1.367141   205.147368     0.000000   0.009416  -0.304734   0.000000 2
Si     1.367993   208.975429     0.000000   0.010268  -0.316900   0.000000 2
Si    -1.348938   207.062508     1.920113   0.008787  -0.309708   0.000000 2
Si     2.725809   207.061093     0.000000   0.010359  -0.311123   0.000000 2
Si     4.084058   207.060878     1.920113   0.010883  -0.311338   0.000000 2
Si   -54.314090   201.415622     1.920113  -0.005090  -0.196254   0.000000 2
Si   -54.313534   205.248622     1.920113  -0.004534  -0.203481   0.000000 2
Si   -55.671596   203.335926     1.920113  -0.004871  -0.196063   0.000000 2
Si   -51.598219   203.324621     0.000000  -0.004669  -0.207369   0.000000 2
Si   -48.882789   201.401077     1.920113  -0.004689  -0.210799   0.000000 2
Si   -48.882298   205.233431     1.920113  -0.004198  -0.218671   0.000000 2
Si   -50.240393   203.320922     1.920113  -0.004568  -0.211068   0.000000 2
Si   -46.166817   203.310070     0.000000  -0.004167  -0.221920   0.000000 2
Si   -43.451235   201.387195     1.920113  -0.004035  -0.224682   0.000000 2
Si   -43.450789   205.218914     1.920113  -0.003589  -0.233188   0.000000 2
Si   -44.808925   203.306543     1.920113  -0.004000  -0.225447   0.000000 2
Si   -40.735156   203.296272     0.000000  -0.003406  -0.235717   0.000000 2
Si   -38.019437   201.374142     1.920113  -0.003137  -0.237735   0.000000 2
Si   -38.019016   205.205249     1.920113  -0.002716  -0.246853   0.000000 2
Si   -39.377202   203.292961     1.920113  -0.003177  -0.239028   0.000000 2
Si   -35.303249   203.283404     0.000000  -0.002399  -0.248586   0.000000 2
Si   -32.587412   201.362088     1.920113  -0.002012  -0.249788   0.000000 2
Si   -32.586995   205.192618     1.920113  -0.001595  -0.259485   0.000000 2
Si   -33.945236   203.280352     1.920113  -0.002111  -0.251637   0.000000 2
Si   -29.871114   203.271639     0.000000  -0.001164  -0.260351   0.000000 2
Si   -27.155179   201.351203     1.920113  -0.000679  -0.260674   0.000000 2
Si   -27.154745   205.181199     1.920113  -0.000245  -0.270904   0.000000 2
Si   -28.513047   203.268890     1.920113  -0.000822  -0.263100   0.000000 2
Si   -24.438772   203.261148     0.000000   0.000278  -0.270842   0.000000 2
Si   -21.722763   201.341645     1.920113   0.000837  -0.270231   0.000000 2
Si   -21.722291   205.171165     1.920113   0.001309  -0.280938   0.000000 2
Si   -23.080657   203.258743     1.920113   0.000668  -0.273246   0.000000 2
Si   -19.006251   203.252093     0.000000   0.001899  -0.279897   0.000000 2
Si   -16.290190   201.333566     1.920113   0.002510  -0.278310   0.000000 2
Si   -16.289663   205.162677     1.920113   0.003037  -0.289426   0.000000 2
Si   -17.648096   203.250071     1.920113   0.002329  -0.281918   0.000000 2
Si   -13.573581   203.244622     0.000000   0.003669  -0.287367   0.000000 2
Si   -10.857492   201.327101     1.920113   0.004308  -0.284775   0.000000 2
Si   -10.856896   205.155880     1.920113   0.004904  -0.296223   0.000000 2
Si   -12.215394   203.243018     1.920113   0.004131  -0.288971   0.000000 2
Si    -8.140796   203.238866     0.000000   0.005554  -0.293123   0.000000 2
Si    -5.424704   201.322365     1.920113   0.006196  -0.289511   0.000000 2
Si    -5.424027   205.150897     1.920113   0.006873  -0.301205   0.000000 2
Si    -6.782586   203.237708     1.920113   0.006039  -0.294281   0.000000 2
Si    -2.707934   203.234932     0.000000   0.007516  -0.297058   0.000000 2
Si     0.008138   201.319449     1.920113   0.008138  -0.292427   0.000000 2
Si     0.008904   205.147828     1.920113   0.008904  -0.304275   0.000000 2
Si    -1.349711   203.234243     1.920113   0.008014  -0.297747   0.000000 2
Si     2.724966   203.232900     0.000000   0.009516  -0.299090   0.000000 2
Si     5.440997   201.318417     1.920113   0.010097  -0.293460   0.000000 2
Si     5.441853   205.146740     1.920113   0.010953  -0.305363   0.000000 2
Si     4.083192   203.232696     1.920113   0.010017  -0.299294   0.000000 2
Si   -52.954468   212.910356     0.000000  -0.003193  -0.222199   0.000000 2
Si   -52.953708   216.743113     0.000000  -0.002433  -0.229668   0.000000 2
Si   -55.669532   214.835351     1.920113  -0.002807  -0.217317   0.000000 2
Si   -51.596351   214.822480     0.000000  -0.002801  -0.230188   0.000000 2
Si   -47.523311   212.893930     0.000000  -0.002936  -0.238625   0.000000 2
Si   -47.522640   216.725940     0.000000  -0.002265  -0.246841   0.000000 2
Si   -50.238583   214.818259     1.920113  -0.002758  -0.234409   0.000000 2
Si   -46.165155   214.805853     0.000000  -0.002505  -0.246816   0.000000 2
Si   -42.091838   212.878247     0.000000  -0.002363  -0.254308   0.000000 2
Si   -42.091232   216.709519     0.000000  -0.001757  -0.263262   0.000000 2
Si   -44.807305   214.801812     1.920113  -0.002380  -0.250856   0.000000 2
Si   -40.733632   214.790025     0.000000  -0.001882  -0.262643   0.000000 2
Si   -36.660057   212.863511     0.000000  -0.001482  -0.269044   0.000000 2
Si   -36.659488   216.694069     0.000000  -0.000913  -0.278713   0.000000 2
Si   -39.375701   214.786218     1.920113  -0.001676  -0.266450   0.000000 2
Si   -35.301790   214.775210     0.000000  -0.000940  -0.277459   0.000000 2
Si   -31.227983   212.849927     0.000000  -0.000308  -0.282628   0.000000 2
Si   -31.227423   216.679808     0.000000   0.000252  -0.292973   0.000000 2
Si   -33.943782   214.771689     1.920113  -0.000657  -0.280980   0.000000 2
Si   -29.869647   214.761619     0.000000   0.000303  -0.291049   0.000000 2
Si   -25.795637   212.837701     0.000000   0.001138  -0.294854   0.000000 2
Si   -25.795059   216.666958     0.000000   0.001716  -0.305823   0.000000 2
Si   -28.511566   214.758437     1.920113   0.000659  -0.294231   0.000000 2
Si   -24.437225   214.749463     0.000000   0.001825  -0.303205   0.000000 2
Si   -20.363050   212.827027     0.000000   0.002825  -0.305528   0.000000 2
Si   -20.362426   216.655728     0.000000   0.003449  -0.317053   0.000000 2
Si   -23.079079   214.746672     1.920113   0.002246  -0.305996   0.000000 2
Si   -19.004557   214.738943     0.000000   0.003593  -0.313725   0.000000 2
Si   -14.930256   212.818089     0.000000   0.004719  -0.314466   0.000000 2
Si   -14.929563   216.646316     0.000000   0.005412  -0.326466   0.000000 2
Si   -17.646355   214.736591     1.920113   0.004070  -0.316078   0.000000 2
Si   -13.571681   214.730243     0.000000   0.005569  -0.322425   0.000000 2
Si    -9.497299   212.811049     0.000000   0.006776  -0.321507   0.000000 2
Si    -9.496516   216.638895     0.000000   0.007559  -0.333886   0.000000 2
Si   -12.213435   214.728372     1.920113   0.006090  -0.324296   0.000000 2
Si    -8.138644   214.723525     0.000000   0.007706  -0.329143   0.000000 2
Si    -4.064224   212.806042     0.000000   0.008951  -0.326513   0.000000 2
Si    -4.063338   216.633615     0.000000   0.009837  -0.339166   0.000000 2
Si    -6.780365   214.722172     1.920113   0.008260  -0.330496   0.000000 2
Si    -2.705496   214.718925     0.000000   0.009954  -0.333743   0.000000 2
Si     1.368915   212.803177     0.000000   0.011190  -0.329378   0.000000 2
Si     1.369914   216.630590     0.000000   0.012189  -0.342191   0.000000 2
Si    -1.347198   214.718118     1.920113   0.010527  -0.334550   0.000000 2
Si     2.727707   214.716543     0.000000   0.012257  -0.336125   0.000000 2
Si     4.086010   214.716303     1.920113   0.012835  -0.336365   0.000000 2
Si   -54.312909   209.081598     1.920113  -0.003909  -0.210731   0.000000 2
Si   -54.312208   212.914555     1.920113  -0.003208  -0.218000   0.000000 2
Si   -55.670300   211.002219     1.920113  -0.003575  -0.210223   0.000000 2
Si   -51.597046   210.989895     0.000000  -0.003496  -0.222547   0.000000 2
Si   -48.881747   209.065729     1.920113  -0.003647  -0.226599   0.000000 2
Si   -48.881130   212.897975     1.920113  -0.003030  -0.234580   0.000000 2
Si   -50.239256   210.985857     1.920113  -0.003431  -0.226585   0.000000 2
Si   -46.165772   210.973995     0.000000  -0.003122  -0.238447   0.000000 2
Si   -43.450291   209.050545     1.920113  -0.003091  -0.241784   0.000000 2
Si   -43.449736   212.882087     1.920113  -0.002536  -0.250468   0.000000 2
Si   -44.807906   210.970135     1.920113  -0.002981  -0.242307   0.000000 2
Si   -40.734195   210.958881     0.000000  -0.002445  -0.253561   0.000000 2
Si   -38.018549   209.036234     1.920113  -0.002249  -0.256094   0.000000 2
Si   -38.018030   212.867095     1.920113  -0.001730  -0.265461   0.000000 2
Si   -39.376255   210.955248     1.920113  -0.002230  -0.257194   0.000000 2
Si   -35.302326   210.944751     0.000000  -0.001476  -0.267691   0.000000 2
Si   -32.586535   209.022991     1.920113  -0.001135  -0.269338   0.000000 2
Si   -32.586028   212.853203     1.920113  -0.000628  -0.279352   0.000000 2
Si   -33.944315   210.941396     1.920113  -0.001190  -0.271046   0.000000 2
Si   -29.870182   210.931806     0.000000  -0.000232  -0.280636   0.000000 2
Si   -27.154269   209.011007     1.920113   0.000231  -0.281322   0.000000 2
Si   -27.153748   212.840619     1.920113   0.000752  -0.291936   0.000000 2
Si   -28.512106   210.928777     1.920113   0.000119  -0.283665   0.000000 2
Si   -24.437787   210.920239     0.000000   0.001263  -0.292203   0.000000 2
Si   -21.721777   209.000467     1.920113   0.001823  -0.291862   0.000000 2
Si   -21.721218   212.829540     1.920113   0.002382  -0.303015   0.000000 2
Si   -23.079652   210.917585     1.920113   0.001673  -0.294857   0.000000 2
Si   -19.005169   210.910239     0.000000   0.002981  -0.302203   0.000000 2
Si   -16.289092   208.991543     1.920113   0.003608  -0.300786   0.000000 2
Si   -16.288472   212.820152     1.920113   0.004228  -0.312403   0.000000 2
Si   -17.646984   210.908004     1.920113   0.003441  -0.304438   0.000000 2
Si   -13.572366   210.901976     0.000000   0.004884  -0.310466   0.000000 2
Si   -10.856250   208.984392     1.920113   0.005550  -0.307937   0.000000 2
Si   -10.855551   212.812623     1.920113   0.006249  -0.319932   0.000000 2
Si   -12.214141   210.900200     1.920113   0.005384  -0.312242   0.000000 2
Si    -8.139419   210.895600     0.000000   0.006931  -0.316842   0.000000 2
Si    -5.423294   208.979147     1.920113   0.007606  -0.313182   0.000000 2
Si    -5.422501   212.807097     1.920113   0.008399  -0.325458   0.000000 2
Si    -6.781165   210.894317     1.920113   0.007460  -0.318125   0.000000 2
Si    -2.706373   210.891237     0.000000   0.009077  -0.321205   0.000000 2
Si     0.009732   208.975914     1.920113   0.009732  -0.316415   0.000000 2
Si     0.010627   212.803688     1.920113   0.010627  -0.328867   0.000000 2
Si    -1.348102   210.890473     1.920113   0.009623  -0.321969   0.000000 2
Si     2.726721   210.888981     0.000000   0.011271  -0.323461   0.000000 2
Si     5.442779   208.974766     1.920113   0.011879  -0.317563   0.000000 2
Si     5.443780   212.802476     1.920113   0.012880  -0.330079   0.000000 2
Si     4.084996   210.888753     1.920113   0.011821  -0.323689   0.000000 2
Si   -52.952857   220.575856     0.000000  -0.001582  -0.237151   0.000000 2
Si   -52.951904   224.408593     0.000000  -0.000629  -0.244641   0.000000 2
Si   -55.667708   222.501624     1.920113  -0.000983  -0.231497   0.000000 2
Si   -51.594702   222.487574     0.000000  -0.001152  -0.245546   0.000000 2
Si   -47.521890   220.557896     0.000000  -0.001515  -0.255112   0.000000 2
Si   -47.521051   224.389802     0.000000  -0.000676  -0.263431   0.000000 2
Si   -50.236986   222.482960     1.920113  -0.001161  -0.250161   0.000000 2
Si   -46.163695   222.469373     0.000000  -0.001045  -0.263748   0.000000 2
Si   -42.090556   220.540695     0.000000  -0.001081  -0.272312   0.000000 2
Si   -42.089802   224.371777     0.000000  -0.000327  -0.281457   0.000000 2
Si   -44.805884   222.464942     1.920113  -0.000959  -0.268179   0.000000 2
Si   -40.732306   222.451994     0.000000  -0.000556  -0.281127   0.000000 2
Si   -36.658857   220.524487     0.000000  -0.000282  -0.288520   0.000000 2
Si   -36.658156   224.354765     0.000000   0.000419  -0.298469   0.000000 2
Si   -39.374400   222.447805     1.920113  -0.000375  -0.285315   0.000000 2
Si   -35.300539   222.435678     0.000000   0.000311  -0.297443   0.000000 2
Si   -31.226806   220.509508     0.000000   0.000869  -0.303500   0.000000 2
Si   -31.226125   224.339019     0.000000   0.001550  -0.314215   0.000000 2
Si   -33.942540   222.431794     1.920113   0.000585  -0.301327   0.000000 2
Si   -29.868408   222.420671     0.000000   0.001542  -0.312449   0.000000 2
Si   -25.794425   220.495992     0.000000   0.002350  -0.317016   0.000000 2
Si   -25.793729   224.324792     0.000000   0.003046  -0.328441   0.000000 2
Si   -28.510321   222.417153     1.920113   0.001904  -0.315968   0.000000 2
Si   -24.435937   222.407217     0.000000   0.003113  -0.325904   0.000000 2
Si   -20.361745   220.484168     0.000000   0.004130  -0.328840   0.000000 2
Si   -20.361003   224.312331     0.000000   0.004872  -0.340903   0.000000 2
Si   -23.077771   222.404123     1.920113   0.003554  -0.328998   0.000000 2
Si   -19.003163   222.395546     0.000000   0.004987  -0.337574   0.000000 2
Si   -14.928810   220.474246     0.000000   0.006165  -0.338761   0.000000 2
Si   -14.927990   224.301864     0.000000   0.006985  -0.351369   0.000000 2
Si   -17.644926   222.392933     1.920113   0.005499  -0.340187   0.000000 2
Si   -13.570129   222.385876     0.000000   0.007121  -0.347244   0.000000 2
Si    -9.495668   220.466418     0.000000   0.008407  -0.346589   0.000000 2
Si    -9.494747   224.293598     0.000000   0.009328  -0.359636   0.000000 2
Si   -12.211836   222.383795     1.920113   0.007689  -0.349326   0.000000 2
Si    -8.136892   222.378397     0.000000   0.009458  -0.354724   0.000000 2
Si    -4.062378   220.460844     0.000000   0.010797  -0.352164   0.000000 2
Si    -4.061337   224.287706     0.000000   0.011838  -0.365528   0.000000 2
Si    -6.778558   222.376889     1.920113   0.010067  -0.356232   0.000000 2
Si    -2.703514   222.373267     0.000000   0.011936  -0.359854   0.000000 2
Si     1.370995   220.457647     0.000000   0.013270  -0.355360   0.000000 2
Si     1.372167   224.284324     0.000000   0.014442  -0.368910   0.000000 2
Si    -1.345156   222.372367     1.920113   0.012569  -0.360754   0.000000 2
Si     2.729934   222.370606     0.000000   0.014484  -0.362514   0.000000 2
Si     4.088298   222.370337     1.920113   0.015123  -0.362784   0.000000 2
Si   -54.311422   216.747500     1.920113  -0.002422  -0.225282   0.000000 2
Si   -54.310541   220.580439     1.920113  -0.001541  -0.232568   0.000000 2
Si   -55.668672   218.668483     1.920113  -0.001947  -0.224411   0.000000 2
Si   -51.595573   218.655037     0.000000  -0.002023  -0.237857   0.000000 2
Si   -48.880439   216.730171     1.920113  -0.002339  -0.242610   0.000000 2
Si   -48.879666   220.562324     1.920113  -0.001566  -0.250684   0.000000 2
Si   -50.237829   218.650625     1.920113  -0.002004  -0.242270   0.000000 2
Si   -46.164466   218.637644     0.000000  -0.001816  -0.255250   0.000000 2
Si   -43.449116   216.713542     1.920113  -0.001916  -0.259239   0.000000 2
Si   -43.448424   220.544912     1.920113  -0.001224  -0.268096   0.000000 2
Si   -44.806634   218.633414     1.920113  -0.001709  -0.259481   0.000000 2
Si   -40.733005   218.621063     0.000000  -0.001255  -0.271832   0.000000 2
Si   -38.017455   216.697828     1.920113  -0.001155  -0.274953   0.000000 2
Si   -38.016815   220.528433     1.920113  -0.000515  -0.284575   0.000000 2
Si   -39.375085   218.617070     1.920113  -0.001060  -0.275824   0.000000 2
Si   -35.301197   218.605519     0.000000  -0.000347  -0.287375   0.000000 2
Si   -32.585468   216.683249     1.920113  -0.000068  -0.289532   0.000000 2
Si   -32.584850   220.513124     1.920113   0.000550  -0.299884   0.000000 2
Si   -33.943192   218.601822     1.920113  -0.000067  -0.291072   0.000000 2
Si   -29.869057   218.591243     0.000000   0.000893  -0.301651   0.000000 2
Si   -27.153176   216.670027     1.920113   0.001324  -0.302754   0.000000 2
Si   -27.152549   220.499221     1.920113   0.001951  -0.313786   0.000000 2
Si   -28.510973   218.587898     1.920113   0.001252  -0.304996   0.000000 2
Si   -24.436610   218.578459     0.000000   0.002440  -0.314435   0.000000 2
Si   -21.720607   216.658373     1.920113   0.002993  -0.314408   0.000000 2
Si   -21.719941   220.486953     1.920113   0.003659  -0.326054   0.000000 2
Si   -23.078454   218.575522     1.920113   0.002871  -0.317372   0.000000 2
Si   -19.003889   218.567384     0.000000   0.004261  -0.325511   0.000000 2
Si   -16.287798   216.648489     1.920113   0.004902  -0.324293   0.000000 2
Si   -16.287065   220.476538     1.920113   0.005635  -0.336470   0.000000 2
Si   -17.645671   218.564906     1.920113   0.004754  -0.327989   0.000000 2
Si   -13.570937   218.558216     0.000000   0.006313  -0.334679   0.000000 2
Si   -10.854792   216.640555     1.920113   0.007008  -0.332226   0.000000 2
Si   -10.853969   220.468170     1.920113   0.007831  -0.344838   0.000000 2
Si   -12.212668   218.556243     1.920113   0.006857  -0.336651   0.000000 2
Si    -8.137803   218.551131     0.000000   0.008547  -0.341763   0.000000 2
Si    -5.421642   216.634728     1.920113   0.009258  -0.338054   0.000000 2
Si    -5.420711   220.462019     1.920113   0.010189  -0.350989   0.000000 2
Si    -6.779498   218.549703     1.920113   0.009127  -0.343191   0.000000 2
Si    -2.704545   218.546275     0.000000   0.010905  -0.346619   0.000000 2
Si     0.011597   216.631130     1.920113   0.011597  -0.341651   0.000000 2
Si     0.012648   220.458218     1.920113   0.012648  -0.354789   0.000000 2
Si    -1.346218   218.545424     1.920113   0.011507  -0.347471   0.000000 2
Si     2.728776   218.543760     0.000000   0.013326  -0.349135   0.000000 2
Si     5.444864   216.629850     1.920113   0.013964  -0.342932   0.000000 2
Si     5.446037   220.456863     1.920113   0.015137  -0.356144   0.000000 2
Si     4.087108   218.543506     1.920113   0.013933  -0.349389   0.000000 2
Si   -52.950836   228.241331     0.000000   0.000439  -0.252129   0.000000 2
Si   -52.949641   232.074083     0.000000   0.001634  -0.259603   0.000000 2
Si   -55.665420   230.167971     1.920113   0.001305  -0.245602   0.000000 2
Si   -51.592633   230.152618     0.000000   0.000917  -0.260955   0.000000 2
Si   -47.520113   228.221666     0.000000   0.000262  -0.271794   0.000000 2
Si   -47.519062   232.053493     0.000000   0.001313  -0.280193   0.000000 2
Si   -50.234984   230.147566     1.920113   0.000841  -0.266008   0.000000 2
Si   -46.161870   230.132663     0.000000   0.000780  -0.280910   0.000000 2
Si   -42.088961   228.202766     0.000000   0.000514  -0.290693   0.000000 2
Si   -42.088022   232.033668     0.000000   0.001453  -0.300018   0.000000 2
Si   -44.804109   230.127794     1.920113   0.000816  -0.285779   0.000000 2
Si   -40.730660   230.113541     0.000000   0.001090  -0.300032   0.000000 2
Si   -36.657378   228.184900     0.000000   0.001197  -0.308560   0.000000 2
Si   -36.656513   232.014891     0.000000   0.002062  -0.318795   0.000000 2
Si   -39.372787   230.108923     1.920113   0.001238  -0.304650   0.000000 2
Si   -35.299001   230.095530     0.000000   0.001849  -0.318043   0.000000 2
Si   -31.225373   228.168336     0.000000   0.002302  -0.325124   0.000000 2
Si   -31.224541   231.997454     0.000000   0.003134  -0.336233   0.000000 2
Si   -33.941017   230.091233     1.920113   0.002108  -0.322340   0.000000 2
Si   -29.866903   230.078912     0.000000   0.003047  -0.334662   0.000000 2
Si   -25.792966   228.153349     0.000000   0.003809  -0.340111   0.000000 2
Si   -25.792127   231.981651     0.000000   0.004648  -0.352035   0.000000 2
Si   -28.508813   230.075008     1.920113   0.003412  -0.338565   0.000000 2
Si   -24.434391   230.063969     0.000000   0.004659  -0.349604   0.000000 2
Si   -20.360192   228.140204     0.000000   0.005683  -0.353256   0.000000 2
Si   -20.359305   231.967772     0.000000   0.006570  -0.365915   0.000000 2
Si   -23.076203   230.060528     1.920113   0.005122  -0.353045   0.000000 2
Si   -19.001504   230.050976     0.000000   0.006646  -0.362597   0.000000 2
Si   -14.927099   228.129150     0.000000   0.007876  -0.364310   0.000000 2
Si   -14.926127   231.956084     0.000000   0.008848  -0.377602   0.000000 2
Si   -17.643229   230.048062     1.920113   0.007196  -0.365511   0.000000 2
Si   -13.568294   230.040184     0.000000   0.008956  -0.373389   0.000000 2
Si    -9.493746   228.120411     0.000000   0.010329  -0.373049   0.000000 2
Si    -9.492658   231.946834     0.000000   0.011417  -0.386852   0.000000 2
Si   -12.209948   230.037858     1.920113   0.009577  -0.375715   0.000000 2
Si    -8.134827   230.031820     0.000000   0.011523  -0.381753   0.000000 2
Si    -4.060207   228.114176     0.000000   0.012968  -0.379284   0.000000 2
Si    -4.058979   231.940227     0.000000   0.014196  -0.393459   0.000000 2
Si    -6.776429   230.030132     1.920113   0.012196  -0.383441   0.000000 2
Si    -2.701183   230.026072     0.000000   0.014267  -0.387501   0.000000 2
Si     1.373438   228.110594     0.000000   0.015713  -0.382866   0.000000 2
Si     1.374819   231.936427     0.000000   0.017094  -0.397259   0.000000 2
Si    -1.342754   230.025062     1.920113   0.014971  -0.388511   0.000000 2
Si     2.732551   230.023085     0.000000   0.017101  -0.390489   0.000000 2
Si     4.090988   230.022781     1.920113   0.017813  -0.390792   0.000000 2
Si   -54.309555   224.413382     1.920113  -0.000555  -0.239852   0.000000 2
Si   -54.308452   228.246338     1.920113   0.000548  -0.247122   0.000000 2
Si   -55.666628   226.334783     1.920113   0.000097  -0.238564   0.000000 2
Si   -51.593726   226.320098     0.000000  -0.000176  -0.253249   0.000000 2
Si   -48.878801   224.394438     1.920113  -0.000701  -0.258796   0.000000 2
Si   -48.877833   228.226521     1.920113   0.000267  -0.266939   0.000000 2
Si   -50.236041   226.315270     1.920113  -0.000216  -0.258077   0.000000 2
Si   -46.162833   226.301044     0.000000  -0.000183  -0.272303   0.000000 2
Si   -43.447652   224.376198     1.920113  -0.000452  -0.277035   0.000000 2
Si   -43.446789   228.207405     1.920113   0.000411  -0.286055   0.000000 2
Si   -44.805046   226.296400     1.920113  -0.000121  -0.276947   0.000000 2
Si   -40.731528   226.282819     0.000000   0.000222  -0.290528   0.000000 2
Si   -38.016105   224.358909     1.920113   0.000195  -0.294325   0.000000 2
Si   -38.015314   228.189254     1.920113   0.000986  -0.304206   0.000000 2
Si   -39.373637   226.278422     1.920113   0.000388  -0.294924   0.000000 2
Si   -35.299810   226.265682     0.000000   0.001040  -0.307665   0.000000 2
Si   -32.584168   224.342822     1.920113   0.001232  -0.310412   0.000000 2
Si   -32.583413   228.172339     1.920113   0.001987  -0.321121   0.000000 2
Si   -33.941817   226.261598     1.920113   0.001308  -0.311748   0.000000 2
Si   -29.867693   226.249896     0.000000   0.002257  -0.323450   0.000000 2
Si   -27.151861   224.328193     1.920113   0.002639  -0.325041   0.000000 2
Si   -27.151104   228.156934     1.920113   0.003396  -0.336526   0.000000 2
Si   -28.509603   226.246192     1.920113   0.002622  -0.327155   0.000000 2
Si   -24.435200   226.235724     0.000000   0.003850  -0.337623   0.000000 2
Si   -21.719213   224.315268     1.920113   0.004387  -0.337965   0.000000 2
Si   -21.718417   228.143304     1.920113   0.005183  -0.350156   0.000000 2
Si   -23.077023   226.232462     1.920113   0.004302  -0.340884   0.000000 2
Si   -19.002370   226.223416     0.000000   0.005780  -0.349931   0.000000 2
Si   -16.286268   224.304282     1.920113   0.006432  -0.348951   0.000000 2
Si   -16.285399   228.131705     1.920113   0.007301  -0.361755   0.000000 2
Si   -17.644115   226.220658     1.920113   0.006310  -0.352689   0.000000 2
Si   -13.569250   226.213206     0.000000   0.008000  -0.360141   0.000000 2
Si   -10.853076   224.295448     1.920113   0.008724  -0.357786   0.000000 2
Si   -10.852105   228.122368     1.920113   0.009695  -0.371092   0.000000 2
Si   -12.210932   226.211007     1.920113   0.008593  -0.362340   0.000000 2
Si    -8.135902   226.205301     0.000000   0.010448  -0.368045   0.000000 2
Si    -5.419701   224.288948     1.920113   0.011199  -0.364286   0.000000 2
Si    -5.418605   228.115491     1.920113   0.012295  -0.377969   0.000000 2
Si    -6.777538   226.203707     1.920113   0.011087  -0.369640   0.000000 2
Si    -2.702396   226.199875     0.000000   0.013054  -0.373472   0.000000 2
Si     0.013786   224.284928     1.920113   0.013786  -0.368306   0.000000 2
Si     0.015022   228.111234     1.920113   0.015022  -0.382226   0.000000 2
Si    -1.344004   226.198922     1.920113   0.013721  -0.374425   0.000000 2
Si     2.731189   226.197057     0.000000   0.015739  -0.376290   0.000000 2
Si     5.447309   224.283492     1.920113   0.016409  -0.369741   0.000000 2
Si     5.448689   228.109710     1.920113   0.017789  -0.383749   0.000000 2
Si     4.089588   226.196771     1.920113   0.016413  -0.376576   0.000000 2
Si   -52.948302   235.906859     0.000000   0.002973  -0.267053   0.000000 2
Si   -52.946802   239.739675     0.000000   0.004473  -0.274463   0.000000 2
Si   -55.662553   237.834488     1.920113   0.004172  -0.259538   0.000000 2
Si   -51.590039   237.817690     0.000000   0.003511  -0.276336   0.000000 2
Si   -47.517886   235.885294     0.000000   0.002489  -0.288619   0.000000 2
Si   -47.516568   239.717078     0.000000   0.003807  -0.297061   0.000000 2
Si   -50.232473   237.812150     1.920113   0.003352  -0.281876   0.000000 2
Si   -46.159584   237.795775     0.000000   0.003066  -0.298251   0.000000 2
Si   -42.086973   235.864485     0.000000   0.002502  -0.309427   0.000000 2
Si   -42.085800   239.695224     0.000000   0.003675  -0.318914   0.000000 2
Si   -44.801890   237.790413     1.920113   0.003035  -0.303613   0.000000 2
Si   -40.728609   237.774688     0.000000   0.003141  -0.319338   0.000000 2
Si   -36.655551   235.844738     0.000000   0.003024  -0.329175   0.000000 2
Si   -36.654478   239.674442     0.000000   0.004097  -0.339697   0.000000 2
Si   -39.370782   237.769582     1.920113   0.003243  -0.324443   0.000000 2
Si   -35.297102   237.754748     0.000000   0.003748  -0.339278   0.000000 2
Si   -31.223621   235.826366     0.000000   0.004054  -0.347547   0.000000 2
Si   -31.222601   239.655067     0.000000   0.005074  -0.359071   0.000000 2
Si   -33.939142   237.749980     1.920113   0.003983  -0.344045   0.000000 2
Si   -29.865067   237.736283     0.000000   0.004883  -0.357742   0.000000 2
Si   -25.791203   235.809688     0.000000   0.005572  -0.364224   0.000000 2
Si   -25.790185   239.637448     0.000000   0.006590  -0.376691   0.000000 2
Si   -28.506978   237.731937     1.920113   0.005247  -0.362089   0.000000 2
Si   -24.432526   237.719626     0.000000   0.006524  -0.374400   0.000000 2
Si   -20.358334   235.795016     0.000000   0.007541  -0.378896   0.000000 2
Si   -20.357268   239.621921     0.000000   0.008607  -0.392218   0.000000 2
Si   -23.074317   237.715781     1.920113   0.007008  -0.378244   0.000000 2
Si   -18.999522   237.705096     0.000000   0.008628  -0.388930   0.000000 2
Si   -14.925066   235.782645     0.000000   0.009909  -0.391268   0.000000 2
Si   -14.923908   239.608808     0.000000   0.011067  -0.405330   0.000000 2
Si   -17.641205   237.701832     1.920113   0.009220  -0.392194   0.000000 2
Si   -13.566115   237.692996     0.000000   0.011135  -0.401030   0.000000 2
Si    -9.491474   235.772840     0.000000   0.012601  -0.401072   0.000000 2
Si    -9.490183   239.598402     0.000000   0.013892  -0.415736   0.000000 2
Si   -12.207709   237.690383     1.920113   0.011816  -0.403642   0.000000 2
Si    -8.132385   237.683595     0.000000   0.013965  -0.410431   0.000000 2
Si    -4.057644   235.765830     0.000000   0.015531  -0.408082   0.000000 2
Si    -4.056191   239.590953     0.000000   0.016984  -0.423186   0.000000 2
Si    -6.773913   237.681694     1.920113   0.014712  -0.412331   0.000000 2
Si    -2.698429   237.677120     0.000000   0.017021  -0.416906   0.000000 2
Si     1.376320   235.761793     0.000000   0.018595  -0.412119   0.000000 2
Si     1.377954   239.586657     0.000000   0.020229  -0.427482   0.000000 2
Si    -1.339917   237.675980     1.920113   0.017808  -0.418046   0.000000 2
Si     2.735642   237.673744     0.000000   0.020192  -0.420281   0.000000 2
Si     4.094163   237.673399     1.920113   0.020988  -0.420627   0.000000 2
Si   -54.307215   232.079318     1.920113   0.001785  -0.254368   0.000000 2
Si   -54.305831   235.912335     1.920113   0.003169  -0.261577   0.000000 2
Si   -55.664067   234.001201     1.920113   0.002658  -0.252598   0.000000 2
Si   -51.591409   233.985144     0.000000   0.002141  -0.268655   0.000000 2
Si   -48.876749   232.058580     1.920113   0.001351  -0.275106   0.000000 2
Si   -48.875536   235.890626     1.920113   0.002564  -0.283286   0.000000 2
Si   -50.233799   233.979855     1.920113   0.002026  -0.273944   0.000000 2
Si   -46.160791   233.964237     0.000000   0.001859  -0.289562   0.000000 2
Si   -43.445826   232.038537     1.920113   0.001374  -0.295149   0.000000 2
Si   -43.444749   235.869600     1.920113   0.002451  -0.304312   0.000000 2
Si   -44.803062   233.959129     1.920113   0.001863  -0.294671   0.000000 2
Si   -40.729691   233.944163     0.000000   0.002059  -0.309636   0.000000 2
Si   -38.014434   232.019470     1.920113   0.001866  -0.314216   0.000000 2
Si   -38.013454   235.849558     1.920113   0.002846  -0.324355   0.000000 2
Si   -39.371840   233.939309     1.920113   0.002185  -0.314491   0.000000 2
Si   -35.298102   233.925219     0.000000   0.002748  -0.328581   0.000000 2
Si   -32.582577   232.001670     1.920113   0.002823  -0.332016   0.000000 2
Si   -32.581650   235.830812     1.920113   0.003750  -0.343101   0.000000 2
Si   -33.940129   233.920695     1.920113   0.002996  -0.333105   0.000000 2
Si   -29.866031   233.907710     0.000000   0.003919  -0.346090   0.000000 2
Si   -27.150270   231.985433     1.920113   0.004230  -0.348253   0.000000 2
Si   -27.149352   235.813682     1.920113   0.005148  -0.360231   0.000000 2
Si   -28.507941   233.903592     1.920113   0.004284  -0.350207   0.000000 2
Si   -24.433503   233.891941     0.000000   0.005547  -0.361858   0.000000 2
Si   -21.717546   231.971046     1.920113   0.006054  -0.362640   0.000000 2
Si   -21.716591   235.798480     1.920113   0.007009  -0.375433   0.000000 2
Si   -23.075304   233.888306     1.920113   0.006021  -0.365494   0.000000 2
Si   -19.000558   233.878209     0.000000   0.007592  -0.375591   0.000000 2
Si   -16.284451   231.958787     1.920113   0.008249  -0.374899   0.000000 2
Si   -16.283417   235.785507     1.920113   0.009283  -0.388405   0.000000 2
Si   -17.642262   233.875126     1.920113   0.008163  -0.378673   0.000000 2
Si   -13.567252   233.866789     0.000000   0.009998  -0.387011   0.000000 2
Si   -10.851048   231.948906     1.920113   0.010752  -0.384780   0.000000 2
Si   -10.849898   235.775038     1.920113   0.011902  -0.398875   0.000000 2
Si   -12.208877   233.864325     1.920113   0.010648  -0.389474   0.000000 2
Si    -8.133658   233.857927     0.000000   0.012692  -0.395872   0.000000 2
Si    -5.417414   231.941621     1.920113   0.013486  -0.392065   0.000000 2
Si    -5.416119   235.767310     1.920113   0.014781  -0.406602   0.000000 2
Si    -6.775224   233.856137     1.920113   0.013401  -0.397662   0.000000 2
Si    -2.699864   233.851831     0.000000   0.015586  -0.401968   0.000000 2
Si     0.016364   231.937107     1.920113   0.016364  -0.396579   0.000000 2
Si     0.017822   235.762516     1.920113   0.017822  -0.411396   0.000000 2
Si    -1.341395   233.850759     1.920113   0.016330  -0.403040   0.000000 2
Si     2.734032   233.848658     0.000000   0.018582  -0.405141   0.000000 2
Si     5.450187   231.935488     1.920113   0.019287  -0.398198   0.000000 2
Si     5.451815   235.760792     1.920113   0.020915  -0.413120   0.000000 2
Si     4.092509   233.848334     1.920113   0.019334  -0.405465   0.000000 2
Si   -52.945122   243.572547     0.000000   0.006153  -0.281818   0.000000 2
Si   -52.943238   247.405492     0.000000   0.008037  -0.289099   0.000000 2
Si   -55.658957   245.501300     1.920113   0.007768  -0.273178   0.000000 2
Si   -51.586780   245.482897     0.000000   0.006770  -0.291581   0.000000 2
Si   -47.515091   243.548857     0.000000   0.005284  -0.305508   0.000000 2
Si   -47.513435   247.380647     0.000000   0.006940  -0.313944   0.000000 2
Si   -50.229319   245.476812     1.920113   0.006506  -0.297666   0.000000 2
Si   -46.156715   245.458784     0.000000   0.005935  -0.315694   0.000000 2
Si   -42.084486   243.525893     0.000000   0.004989  -0.328472   0.000000 2
Si   -42.083015   247.356500     0.000000   0.006460  -0.338091   0.000000 2
Si   -44.799106   245.452866     1.920113   0.005819  -0.321612   0.000000 2
Si   -40.726046   245.435471     0.000000   0.005704  -0.339007   0.000000 2
Si   -36.653281   243.504004     0.000000   0.005294  -0.350361   0.000000 2
Si   -36.651944   247.333427     0.000000   0.006631  -0.361164   0.000000 2
Si   -39.368281   245.429810     1.920113   0.005744  -0.344668   0.000000 2
Si   -35.294747   245.413326     0.000000   0.006103  -0.361152   0.000000 2
Si   -31.221468   243.483554     0.000000   0.006207  -0.370811   0.000000 2
Si   -31.220209   247.311821     0.000000   0.007466  -0.382770   0.000000 2
Si   -33.936823   245.408017     1.920113   0.006302  -0.366461   0.000000 2
Si   -29.862813   245.392733     0.000000   0.007137  -0.381745   0.000000 2
Si   -25.789062   243.464918     0.000000   0.007713  -0.389447   0.000000 2
Si   -25.787819   247.292088     0.000000   0.008956  -0.402503   0.000000 2
Si   -28.504732   245.387873     1.920113   0.007493  -0.386605   0.000000 2
Si   -24.430263   245.374082     0.000000   0.008787  -0.400396   0.000000 2
Si   -20.356099   243.448466     0.000000   0.009776  -0.405899   0.000000 2
Si   -20.354811   247.274633     0.000000   0.011064  -0.419958   0.000000 2
Si   -23.072033   245.369767     1.920113   0.009292  -0.404711   0.000000 2
Si   -18.997139   245.357754     0.000000   0.011011  -0.416724   0.000000 2
Si   -14.922640   243.434549     0.000000   0.012335  -0.419816   0.000000 2
Si   -14.921251   247.259841     0.000000   0.013724  -0.434750   0.000000 2
Si   -17.638777   245.354079     1.920113   0.011648  -0.420399   0.000000 2
Si   -13.563513   245.344113     0.000000   0.013737  -0.430365   0.000000 2
Si    -9.488773   243.423488     0.000000   0.015302  -0.430876   0.000000 2
Si    -9.487233   247.248065     0.000000   0.016842  -0.446526   0.000000 2
Si   -12.205039   245.341162     1.920113   0.014486  -0.433316   0.000000 2
Si    -8.129480   245.333484     0.000000   0.016870  -0.440994   0.000000 2
Si    -4.054606   243.415559     0.000000   0.018569  -0.438806   0.000000 2
Si    -4.052876   247.239611     0.000000   0.020299  -0.454980   0.000000 2
Si    -6.770922   245.331331     1.920113   0.017703  -0.443147   0.000000 2
Si    -2.695161   245.326143     0.000000   0.020289  -0.448335   0.000000 2
Si     1.379734   243.410980     0.000000   0.022009  -0.443385   0.000000 2
Si     1.381676   247.234720     0.000000   0.023951  -0.459871   0.000000 2
Si    -1.336552   245.324848     1.920113   0.021173  -0.449630   0.000000 2
Si     2.739306   245.322302     0.000000   0.023856  -0.452175   0.000000 2
Si     4.097928   245.321907     1.920113   0.024753  -0.452571   0.000000 2
Si   -54.304281   239.745405     1.920113   0.004719  -0.268734   0.000000 2
Si   -54.302544   243.578544     1.920113   0.006456  -0.275821   0.000000 2
Si   -55.660857   241.667848     1.920113   0.005868  -0.266404   0.000000 2
Si   -51.588502   241.650269     0.000000   0.005048  -0.283983   0.000000 2
Si   -48.874176   239.722670     1.920113   0.003924  -0.291469   0.000000 2
Si   -48.872651   243.554725     1.920113   0.005449  -0.299640   0.000000 2
Si   -50.230986   241.644464     1.920113   0.004839  -0.289788   0.000000 2
Si   -46.158232   241.627286     0.000000   0.004418  -0.306966   0.000000 2
Si   -43.443543   239.700601     1.920113   0.003657  -0.313538   0.000000 2
Si   -43.442193   243.531548     1.920113   0.005007  -0.322817   0.000000 2
Si   -44.800577   241.621655     1.920113   0.004348  -0.312597   0.000000 2
Si   -40.727400   241.605122     0.000000   0.004350  -0.329130   0.000000 2
Si   -38.012361   239.679518     1.920113   0.003939  -0.334621   0.000000 2
Si   -38.011140   243.509355     1.920113   0.005160  -0.345010   0.000000 2
Si   -39.369602   241.599748     1.920113   0.004423  -0.334504   0.000000 2
Si   -35.295989   241.584117     0.000000   0.004861  -0.350135   0.000000 2
Si   -32.580622   239.659759     1.920113   0.004778  -0.354379   0.000000 2
Si   -32.579478   243.488510     1.920113   0.005922  -0.365855   0.000000 2
Si   -33.938045   241.579088     1.920113   0.005080  -0.355164   0.000000 2
Si   -29.863999   241.564627     0.000000   0.005951  -0.369625   0.000000 2
Si   -27.148338   239.641670     1.920113   0.006162  -0.372469   0.000000 2
Si   -27.147217   243.469387     1.920113   0.007283  -0.384978   0.000000 2
Si   -28.505913   241.560033     1.920113   0.006312  -0.374219   0.000000 2
Si   -24.431450   241.547011     0.000000   0.007600  -0.387241   0.000000 2
Si   -21.715542   239.625588     1.920113   0.008058  -0.388550   0.000000 2
Si   -21.714389   243.452355     1.920113   0.009211  -0.402010   0.000000 2
Si   -23.073230   241.542940     1.920113   0.008095  -0.391311   0.000000 2
Si   -18.998386   241.531618     0.000000   0.009764  -0.402634   0.000000 2
Si   -16.282286   239.611844     1.920113   0.010414  -0.402295   0.000000 2
Si   -16.281047   243.437773     1.920113   0.011653  -0.416592   0.000000 2
Si   -17.640047   241.528157     1.920113   0.010378  -0.406095   0.000000 2
Si   -13.564872   241.518780     0.000000   0.012378  -0.415472   0.000000 2
Si   -10.848643   239.600736     1.920113   0.013157  -0.413403   0.000000 2
Si   -10.847273   243.425970     1.920113   0.014527  -0.428395   0.000000 2
Si   -12.206433   241.516005     1.920113   0.013092  -0.418247   0.000000 2
Si    -8.130996   241.508791     0.000000   0.015354  -0.425460   0.000000 2
Si    -5.414708   239.592526     1.920113   0.016192  -0.421612   0.000000 2
Si    -5.413169   243.417235     1.920113   0.017731  -0.437130   0.000000 2
Si    -6.772483   241.506770     1.920113   0.016142  -0.427481   0.000000 2
Si    -2.696866   241.501903     0.000000   0.018584  -0.432349   0.000000 2
Si     0.019410   239.587427     1.920113   0.019410  -0.426712   0.000000 2
Si     0.021140   243.411801     1.920113   0.021140  -0.442564   0.000000 2
Si    -1.338308   241.500689     1.920113   0.019417  -0.433563   0.000000 2
Si     2.737395   241.498306     0.000000   0.021945  -0.435946   0.000000 2
Si     5.453587   239.585588     1.920113   0.022687  -0.428551   0.000000 2
Si     5.455517   243.409836     1.920113   0.024617  -0.444529   0.000000 2
Si     4.095964   241.497937     1.920113   0.022789  -0.436315   0.000000 2
Si   -52.941124   251.238532     0.000000   0.010151  -0.296286   0.000000 2
Si   -52.938752   255.071691     0.000000   0.012523  -0.303353   0.000000 2
Si   -55.654443   253.168567     1.920113   0.012282  -0.286363   0.000000 2
Si   -51.582680   253.148381     0.000000   0.010870  -0.306550   0.000000 2
Si   -47.511575   251.212464     0.000000   0.008800  -0.322353   0.000000 2
Si   -47.509485   255.044328     0.000000   0.010890  -0.330715   0.000000 2
Si   -50.225348   253.141687     1.920113   0.010477  -0.313243   0.000000 2
Si   -46.153103   253.121797     0.000000   0.009547  -0.333133   0.000000 2
Si   -42.081365   251.187058     0.000000   0.008110  -0.347759   0.000000 2
Si   -42.079511   255.017579     0.000000   0.009964  -0.357464   0.000000 2
Si   -44.795602   253.115251     1.920113   0.009323  -0.339679   0.000000 2
Si   -40.722828   253.095954     0.000000   0.008922  -0.358976   0.000000 2
Si   -36.650449   251.162716     0.000000   0.008126  -0.372101   0.000000 2
Si   -36.648774   254.991878     0.000000   0.009801  -0.383166   0.000000 2
Si   -39.365144   253.089658     1.920113   0.008881  -0.365272   0.000000 2
Si   -35.291810   253.071276     0.000000   0.009040  -0.383654   0.000000 2
Si   -31.218806   251.139865     0.000000   0.008869  -0.394953   0.000000 2
Si   -31.217241   254.967683     0.000000   0.010434  -0.407360   0.000000 2
Si   -33.933936   253.065341     1.920113   0.009189  -0.389590   0.000000 2
Si   -29.860029   253.048213     0.000000   0.009921  -0.406718   0.000000 2
Si   -25.786442   251.118946     0.000000   0.010333  -0.415871   0.000000 2
Si   -25.784914   254.945479     0.000000   0.011861  -0.429565   0.000000 2
Si   -28.501965   253.042753     1.920113   0.010260  -0.412177   0.000000 2
Si   -24.427497   253.027227     0.000000   0.011553  -0.427703   0.000000 2
Si   -20.353393   251.100401     0.000000   0.012482  -0.434416   0.000000 2
Si   -20.351826   254.925747     0.000000   0.014049  -0.449296   0.000000 2
Si   -23.069251   253.022359     1.920113   0.012074  -0.432571   0.000000 2
Si   -18.994257   253.008778     0.000000   0.013893  -0.446152   0.000000 2
Si   -14.919727   251.084654     0.000000   0.015248  -0.450163   0.000000 2
Si   -14.918050   254.908957     0.000000   0.016925  -0.466086   0.000000 2
Si   -17.635845   253.004614     1.920113   0.014580  -0.450316   0.000000 2
Si   -13.560388   252.993305     0.000000   0.016862  -0.461626   0.000000 2
Si    -9.485546   251.072096     0.000000   0.018529  -0.462721   0.000000 2
Si    -9.483696   254.895541     0.000000   0.020379  -0.479503   0.000000 2
Si   -12.201836   252.989950     1.920113   0.017689  -0.464981   0.000000 2
Si    -8.126007   252.981206     0.000000   0.020343  -0.473725   0.000000 2
Si    -4.050984   251.063065     0.000000   0.022191  -0.471752   0.000000 2
Si    -4.048912   254.885875     0.000000   0.024263  -0.489169   0.000000 2
Si    -6.767348   252.978750     1.920113   0.021277  -0.476180   0.000000 2
Si    -2.691260   252.972822     0.000000   0.024190  -0.482109   0.000000 2
Si     1.383799   251.057831     0.000000   0.026074  -0.476987   0.000000 2
Si     1.386123   254.880261     0.000000   0.028398  -0.494782   0.000000 2
Si    -1.332536   252.971339     1.920113   0.025189  -0.483591   0.000000 2
Si     2.743676   252.968418     0.000000   0.028226  -0.486513   0.000000 2
Si     4.102417   252.967961     1.920113   0.029242  -0.486970   0.000000 2
Si   -54.300598   247.411771     1.920113   0.008402  -0.282820   0.000000 2
Si   -54.298415   251.245108     1.920113   0.010585  -0.289709   0.000000 2
Si   -55.656829   249.334865     1.920113   0.009896  -0.279839   0.000000 2
Si   -51.584849   249.315594     0.000000   0.008701  -0.299111   0.000000 2
Si   -48.870941   247.386807     1.920113   0.007159  -0.307784   0.000000 2
Si   -48.869022   251.218934     1.920113   0.009078  -0.315883   0.000000 2
Si   -50.227448   249.309213     1.920113   0.008377  -0.305491   0.000000 2
Si   -46.155014   249.290282     0.000000   0.007636  -0.324422   0.000000 2
Si   -43.440680   247.362452     1.920113   0.006520  -0.332139   0.000000 2
Si   -43.438982   251.193326     1.920113   0.008218  -0.341491   0.000000 2
Si   -44.797455   249.284060     1.920113   0.007470  -0.330644   0.000000 2
Si   -40.724529   249.265745     0.000000   0.007221  -0.348959   0.000000 2
Si   -38.009774   247.339073     1.920113   0.006526  -0.355518   0.000000 2
Si   -38.008246   251.168678     1.920113   0.008054  -0.366139   0.000000 2
Si   -39.366802   249.259777     1.920113   0.007223  -0.354927   0.000000 2
Si   -35.293360   249.242378     0.000000   0.007490  -0.372326   0.000000 2
Si   -32.578205   247.317062     1.920113   0.007195  -0.377529   0.000000 2
Si   -32.576785   251.145413     1.920113   0.008615  -0.389404   0.000000 2
Si   -33.935459   249.236767     1.920113   0.007666  -0.377937   0.000000 2
Si   -29.861496   249.220597     0.000000   0.008454  -0.394107   0.000000 2
Si   -27.145976   247.296824     1.920113   0.008524  -0.397767   0.000000 2
Si   -27.144600   251.123970     1.920113   0.009900  -0.410847   0.000000 2
Si   -28.503422   249.215449     1.920113   0.008803  -0.399255   0.000000 2
Si   -24.428950   249.200825     0.000000   0.010100  -0.413879   0.000000 2
Si   -21.713118   247.278762     1.920113   0.010482  -0.415829   0.000000 2
Si   -21.711716   251.104791     1.920113   0.011884  -0.430026   0.000000 2
Si   -23.070712   249.196246     1.920113   0.010613  -0.418459   0.000000 2
Si   -18.995768   249.183482     0.000000   0.012382  -0.431222   0.000000 2
Si   -16.279689   247.263270     1.920113   0.013011  -0.431322   0.000000 2
Si   -16.278196   251.088307     1.920113   0.014504  -0.446511   0.000000 2
Si   -17.637381   249.179573     1.920113   0.013044  -0.435131   0.000000 2
Si   -13.562024   249.168966     0.000000   0.015226  -0.445739   0.000000 2
Si   -10.845774   247.250709     1.920113   0.016026  -0.443882   0.000000 2
Si   -10.844133   251.074917     1.920113   0.017667  -0.459900   0.000000 2
Si   -12.203511   249.165822     1.920113   0.016014  -0.448883   0.000000 2
Si    -8.127823   249.157635     0.000000   0.018527  -0.457069   0.000000 2
Si    -5.411489   247.241399     1.920113   0.019411  -0.453192   0.000000 2
Si    -5.409652   251.064976     1.920113   0.021248  -0.469841   0.000000 2
Si    -6.769216   249.155338     1.920113   0.019409  -0.459366   0.000000 2
Si    -2.693298   249.149798     0.000000   0.022152  -0.464906   0.000000 2
Si     0.023029   247.235598     1.920113   0.023029  -0.458993   0.000000 2
Si     0.025092   251.058772     1.920113   0.025092  -0.476046   0.000000 2
Si    -1.334634   249.148414     1.920113   0.023091  -0.466290   0.000000 2
Si     2.741393   249.145690     0.000000   0.025943  -0.469015   0.000000 2
Si     5.457623   247.233493     1.920113   0.026723  -0.461098   0.000000 2
Si     5.459923   251.056512     1.920113   0.029023  -0.478305   0.000000 2
Si     4.100072   249.145265     1.920113   0.026897  -0.469439   0.000000 2
Si   -52.936089   258.904996     0.000000   0.015186  -0.310273   0.000000 2
Si   -52.933096   262.738480     0.000000   0.018179  -0.317016   0.000000 2
Si   -55.648766   260.836497     1.920113   0.017959  -0.298886   0.000000 2
Si   -51.577509   260.814328     0.000000   0.016041  -0.321055   0.000000 2
Si   -47.507136   258.876262     0.000000   0.013239  -0.339008   0.000000 2
Si   -47.504491   262.708293     0.000000   0.015884  -0.347203   0.000000 2
Si   -50.220336   260.806953     1.920113   0.015489  -0.328430   0.000000 2
Si   -46.148539   260.784965     0.000000   0.014111  -0.350418   0.000000 2
Si   -42.077427   258.848082     0.000000   0.012048  -0.367188   0.000000 2
Si   -42.075081   262.678585     0.000000   0.014394  -0.376911   0.000000 2
Si   -44.791174   260.777705     1.920113   0.013751  -0.357678   0.000000 2
Si   -40.718767   260.756236     0.000000   0.012983  -0.379147   0.000000 2
Si   -36.646893   258.820920     0.000000   0.011682  -0.394350   0.000000 2
Si   -36.644780   262.649854     0.000000   0.013795  -0.405642   0.000000 2
Si   -39.361189   260.749209     1.920113   0.012836  -0.386174   0.000000 2
Si   -35.288122   260.728633     0.000000   0.012728  -0.406750   0.000000 2
Si   -31.215492   258.795276     0.000000   0.012183  -0.419994   0.000000 2
Si   -31.213532   262.622642     0.000000   0.014143  -0.432854   0.000000 2
Si   -33.930319   260.721969     1.920113   0.012806  -0.413414   0.000000 2
Si   -29.856564   260.702685     0.000000   0.013386  -0.432698   0.000000 2
Si   -25.783214   258.771675     0.000000   0.013561  -0.443594   0.000000 2
Si   -25.781319   262.597524     0.000000   0.015456  -0.457972   0.000000 2
Si   -28.498530   260.696521     1.920113   0.013695  -0.438861   0.000000 2
Si   -24.424090   260.678946     0.000000   0.014960  -0.456436   0.000000 2
Si   -20.350093   258.750650     0.000000   0.015782  -0.464620   0.000000 2
Si   -20.348170   262.575084     0.000000   0.017705  -0.480412   0.000000 2
Si   -23.065832   260.673422     1.920113   0.015493  -0.461961   0.000000 2
Si   -18.990741   260.657972     0.000000   0.017409  -0.477411   0.000000 2
Si   -14.916202   258.732716     0.000000   0.018773  -0.482553   0.000000 2
Si   -14.914161   262.555895     0.000000   0.020814  -0.499601   0.000000 2
Si   -17.632277   260.653224     1.920113   0.018148  -0.482159   0.000000 2
Si   -13.556607   260.640300     0.000000   0.020643  -0.495083   0.000000 2
Si    -9.481663   258.718356     0.000000   0.022412  -0.496914   0.000000 2
Si    -9.479424   262.540492     0.000000   0.024651  -0.515004   0.000000 2
Si   -12.197965   260.636457     1.920113   0.021560  -0.498926   0.000000 2
Si    -8.121823   260.626423     0.000000   0.024527  -0.508960   0.000000 2
Si    -4.046638   258.707988     0.000000   0.026537  -0.507281   0.000000 2
Si    -4.044138   262.529349     0.000000   0.029037  -0.526147   0.000000 2
Si    -6.763046   260.623599     1.920113   0.025579  -0.511784   0.000000 2
Si    -2.686573   260.616769     0.000000   0.028877  -0.518614   0.000000 2
Si     1.388671   258.701954     0.000000   0.030946  -0.513316   0.000000 2
Si     1.391471   262.522846     0.000000   0.033746  -0.532650   0.000000 2
Si    -1.327713   260.615057     1.920113   0.030012  -0.520326   0.000000 2
Si     2.748921   260.611671     0.000000   0.033471  -0.523712   0.000000 2
Si     4.107803   260.611137     1.920113   0.034628  -0.524246   0.000000 2
Si   -54.295967   255.078581     1.920113   0.013033  -0.296463   0.000000 2
Si   -54.293220   258.912217     1.920113   0.015780  -0.303053   0.000000 2
Si   -55.651767   257.002435     1.920113   0.014958  -0.292722   0.000000 2
Si   -51.580245   256.981283     0.000000   0.013305  -0.313874   0.000000 2
Si   -48.866866   255.051128     1.920113   0.011234  -0.323916   0.000000 2
Si   -48.864442   258.883411     1.920113   0.013658  -0.331858   0.000000 2
Si   -50.222989   256.974258     1.920113   0.012836  -0.320899   0.000000 2
Si   -46.150955   256.953351     0.000000   0.011695  -0.341806   0.000000 2
Si   -43.437075   255.024186     1.920113   0.010125  -0.350857   0.000000 2
Si   -43.434929   258.855051     1.920113   0.012271  -0.360219   0.000000 2
Si   -44.793518   256.946459     1.920113   0.011407  -0.348698   0.000000 2
Si   -40.720916   256.926112     0.000000   0.010834  -0.369044   0.000000 2
Si   -38.006532   254.998180     1.920113   0.009768  -0.376864   0.000000 2
Si   -38.004607   258.827587     1.920113   0.011693  -0.387682   0.000000 2
Si   -39.363283   256.919464     1.920113   0.010742  -0.375693   0.000000 2
Si   -35.290072   256.900025     0.000000   0.010778  -0.395132   0.000000 2
Si   -32.575200   254.973564     1.920113   0.010200  -0.401480   0.000000 2
Si   -32.573425   258.801515     1.920113   0.011975  -0.413755   0.000000 2
Si   -33.932231   256.893739     1.920113   0.010894  -0.401417   0.000000 2
Si   -29.858393   256.875577     0.000000   0.011557  -0.419580   0.000000 2
Si   -27.143069   254.950817     1.920113   0.011431  -0.424227   0.000000 2
Si   -27.141365   258.777355     1.920113   0.013135  -0.437915   0.000000 2
Si   -28.500342   256.869779     1.920113   0.011883  -0.425377   0.000000 2
Si   -24.425884   256.853272     0.000000   0.013166  -0.441884   0.000000 2
Si   -21.710166   254.930422     1.920113   0.013434  -0.444621   0.000000 2
Si   -21.708449   258.755636     1.920113   0.015151  -0.459634   0.000000 2
Si   -23.067631   256.848090     1.920113   0.013694  -0.447066   0.000000 2
Si   -18.992588   256.833617     0.000000   0.015562  -0.461540   0.000000 2
Si   -16.276553   254.912855     1.920113   0.016147  -0.462189   0.000000 2
Si   -16.274741   258.736883     1.920113   0.017959  -0.478387   0.000000 2
Si   -17.634150   256.829174     1.920113   0.016275  -0.465982   0.000000 2
Si   -13.558589   256.817095     0.000000   0.018661  -0.478061   0.000000 2
Si   -10.842331   254.898557     1.920113   0.019469  -0.476486   0.000000 2
Si   -10.840350   258.721587     1.920113   0.021450  -0.493683   0.000000 2
Si   -12.199994   256.813508     1.920113   0.019531  -0.481648   0.000000 2
Si    -8.124014   256.804151     0.000000   0.022336  -0.491006   0.000000 2
Si    -5.407639   254.887922     1.920113   0.023261  -0.487122   0.000000 2
Si    -5.405429   258.710186     1.920113   0.025471  -0.505084   0.000000 2
Si    -6.765298   256.801520     1.920113   0.023327  -0.493636   0.000000 2
Si    -2.689026   256.795164     0.000000   0.026424  -0.499992   0.000000 2
Si     0.027352   254.881272     1.920113   0.027352  -0.493772   0.000000 2
Si     0.029830   258.703042     1.920113   0.029830  -0.512228   0.000000 2
Si    -1.330237   256.793573     1.920113   0.027488  -0.501584   0.000000 2
Si     2.746177   256.790432     0.000000   0.030727  -0.504725   0.000000 2
Si     5.462441   254.878840     1.920113   0.031541  -0.496204   0.000000 2
Si     5.465201   258.700417     1.920113   0.034301  -0.514852   0.000000 2
Si     4.104985   256.789939     1.920113   0.031810  -0.505218   0.000000 2
Si   -52.929731   266.572176     0.000000   0.021544  -0.323546   0.000000 2
Si   -52.925945   270.406125     0.000000   0.025330  -0.329824   0.000000 2
Si   -55.641612   268.505350     1.920113   0.025113  -0.310485   0.000000 2
Si   -51.570967   268.480982     0.000000   0.022583  -0.334853   0.000000 2
Si   -47.501512   266.540451     0.000000   0.018863  -0.355271   0.000000 2
Si   -47.498151   270.372773     0.000000   0.022224  -0.363176   0.000000 2
Si   -50.213990   268.472844     1.920113   0.021835  -0.342992   0.000000 2
Si   -46.142746   268.448490     0.000000   0.019904  -0.367346   0.000000 2
Si   -42.072436   266.509112     0.000000   0.017039  -0.386610   0.000000 2
Si   -42.069450   270.339693     0.000000   0.020025  -0.396255   0.000000 2
Si   -44.785553   268.440418     1.920113   0.019372  -0.375418   0.000000 2
Si   -40.713613   268.416462     0.000000   0.018137  -0.399374   0.000000 2
Si   -36.642400   266.478695     0.000000   0.016175  -0.417027   0.000000 2
Si   -36.639716   270.307460     0.000000   0.018859  -0.428488   0.000000 2
Si   -39.356174   268.408592     1.920113   0.017851  -0.407243   0.000000 2
Si   -35.283460   268.385468     0.000000   0.017390  -0.430368   0.000000 2
Si   -31.211332   266.449786     0.000000   0.016343  -0.445936   0.000000 2
Si   -31.208857   270.276712     0.000000   0.018818  -0.459236   0.000000 2
Si   -33.925753   268.377953     1.920113   0.017372  -0.437883   0.000000 2
Si   -29.852216   268.356134     0.000000   0.017734  -0.459701   0.000000 2
Si   -25.779202   266.423014     0.000000   0.017573  -0.472708   0.000000 2
Si   -25.776830   270.248136     0.000000   0.019945  -0.487812   0.000000 2
Si   -28.494230   268.349137     1.920113   0.017995  -0.466698   0.000000 2
Si   -24.419857   268.329125     0.000000   0.019193  -0.486711   0.000000 2
Si   -20.346032   266.399024     0.000000   0.019843  -0.496698   0.000000 2
Si   -20.343650   270.222446     0.000000   0.022225  -0.513503   0.000000 2
Si   -23.061595   268.322815     1.920113   0.019730  -0.493020   0.000000 2
Si   -18.986416   268.305118     0.000000   0.021734  -0.510717   0.000000 2
Si   -14.911902   266.378453     0.000000   0.023073  -0.517269   0.000000 2
Si   -14.909396   270.200348     0.000000   0.025579  -0.535600   0.000000 2
Si   -17.627897   268.299665     1.920113   0.022528  -0.516171   0.000000 2
Si   -13.551991   268.284780     0.000000   0.025259  -0.531055   0.000000 2
Si    -9.476953   266.361898     0.000000   0.027122  -0.533824   0.000000 2
Si    -9.474220   270.182516     0.000000   0.029855  -0.553432   0.000000 2
Si   -12.193249   268.280344     1.920113   0.026276  -0.535492   0.000000 2
Si    -8.116743   268.268730     0.000000   0.029607  -0.547105   0.000000 2
Si    -4.041383   266.349892     0.000000   0.031792  -0.545830   0.000000 2
Si    -4.038342   270.169549     0.000000   0.034833  -0.566400   0.000000 2
Si    -6.757828   268.265454     1.920113   0.030797  -0.550382   0.000000 2
Si    -2.680898   268.257509     0.000000   0.034552  -0.558326   0.000000 2
Si     1.394553   266.342866     0.000000   0.036828  -0.552856   0.000000 2
Si     1.397953   270.161936     0.000000   0.040228  -0.574012   0.000000 2
Si    -1.321875   268.255511     1.920113   0.035850  -0.560324   0.000000 2
Si     2.755264   268.251546     0.000000   0.039814  -0.564289   0.000000 2
Si     4.114316   268.250914     1.920113   0.041141  -0.564921   0.000000 2
Si   -54.290134   262.746048     1.920113   0.018866  -0.309448   0.000000 2
Si   -54.286667   266.580111     1.920113   0.022333  -0.315611   0.000000 2
Si   -55.645396   264.670790     1.920113   0.021329  -0.304820   0.000000 2
Si   -51.574431   264.647549     0.000000   0.019119  -0.328060   0.000000 2
Si   -48.861714   262.715813     1.920113   0.016386  -0.339683   0.000000 2
Si   -48.858642   266.548366     1.920113   0.019458  -0.347356   0.000000 2
Si   -50.217352   264.639803     1.920113   0.018473  -0.335806   0.000000 2
Si   -46.145816   264.616667     0.000000   0.016834  -0.358942   0.000000 2
Si   -43.432514   262.685941     1.920113   0.014686  -0.369555   0.000000 2
Si   -43.429791   266.516883     1.920113   0.017409  -0.378839   0.000000 2
Si   -44.788533   264.609014     1.920113   0.016392  -0.366595   0.000000 2
Si   -40.716345   264.586344     0.000000   0.015405  -0.389265   0.000000 2
Si   -38.002442   262.656916     1.920113   0.013858  -0.398580   0.000000 2
Si   -38.000004   266.486181     1.920113   0.016296  -0.409541   0.000000 2
Si   -39.358832   264.578911     1.920113   0.015193  -0.396698   0.000000 2
Si   -35.285929   264.557109     0.000000   0.014921  -0.418500   0.000000 2
Si   -32.571434   262.629271     1.920113   0.013966  -0.426225   0.000000 2
Si   -32.569198   266.456837     1.920113   0.016202  -0.438885   0.000000 2
Si   -33.928171   264.550037     1.920113   0.014954  -0.425572   0.000000 2
Si   -29.854515   264.529538     0.000000   0.015435  -0.446071   0.000000 2
Si   -27.139462   262.603576     1.920113   0.015038  -0.451920   0.000000 2
Si   -27.137334   266.429472     1.920113   0.017166  -0.466250   0.000000 2
Si   -28.496503   264.522975     1.920113   0.015722  -0.452634   0.000000 2
Si   -24.422091   264.504235     0.000000   0.016959  -0.471374   0.000000 2
Si   -21.706542   262.580411     1.920113   0.017058  -0.475085   0.000000 2
Si   -21.704419   266.404726     1.920113   0.019181  -0.490996   0.000000 2
Si   -23.063830   264.498336     1.920113   0.017495  -0.477273   0.000000 2
Si   -18.988693   264.481816     0.000000   0.019457  -0.493793   0.000000 2
Si   -16.272738   262.560357     1.920113   0.019962  -0.495139   0.000000 2
Si   -16.270518   266.383242     1.920113   0.022182  -0.512480   0.000000 2
Si   -17.630202   264.476732     1.920113   0.020223  -0.498877   0.000000 2
Si   -13.554417   264.462876     0.000000   0.022833  -0.512733   0.000000 2
Si   -10.838167   262.543961     1.920113   0.023633  -0.511535   0.000000 2
Si   -10.835757   266.365630     1.920113   0.026043  -0.530092   0.000000 2
Si   -12.195726   264.458752     1.920113   0.023799  -0.516858   0.000000 2
Si    -8.119409   264.447969     0.000000   0.026941  -0.527640   0.000000 2
Si    -5.402999   262.531713     1.920113   0.027901  -0.523783   0.000000 2
Si    -5.400321   266.352442     1.920113   0.030579  -0.543280   0.000000 2
Si    -6.760566   264.444931     1.920113   0.028059  -0.530678   0.000000 2
Si    -2.683874   264.437573     0.000000   0.031576  -0.538036   0.000000 2
Si     0.032552   262.524020     1.920113   0.032552  -0.531476   0.000000 2
Si     0.035550   266.344137     1.920113   0.035550  -0.551585   0.000000 2
Si    -1.324936   264.435727     1.920113   0.032789  -0.539883   0.000000 2
Si     2.751939   264.432068     0.000000   0.036489  -0.543541   0.000000 2
Si     5.468233   262.521180     1.920113   0.037333  -0.534316   0.000000 2
Si     5.471569   266.341054     1.920113   0.040669  -0.554668   0.000000 2
Si     4.110902   264.431488     1.920113   0.037727  -0.544121   0.000000 2
Si   -52.921683   274.240371     0.000000   0.029592  -0.335803   0.000000 2
Si   -52.916881   278.074966     0.000000   0.034394  -0.341435   0.000000 2
Si   -55.632580   276.175455     1.920113   0.034145  -0.320832   0.000000 2
Si   -51.562667   276.148656     0.000000   0.030883  -0.347632   0.000000 2
Si   -47.494358   274.205298     0.000000   0.026017  -0.370877   0.000000 2
Si   -47.490071   278.038074     0.000000   0.030304  -0.378327   0.000000 2
Si   -50.205928   276.139666     1.920113   0.029897  -0.356621   0.000000 2
Si   -46.135365   276.112645     0.000000   0.027285  -0.383642   0.000000 2
Si   -42.066075   274.170360     0.000000   0.023400  -0.405815   0.000000 2
Si   -42.062253   278.001152     0.000000   0.027222  -0.415249   0.000000 2
Si   -44.778386   276.103650     1.920113   0.026539  -0.392637   0.000000 2
Si   -40.707036   276.076841     0.000000   0.024714  -0.419446   0.000000 2
Si   -36.636682   274.136173     0.000000   0.021893  -0.440002   0.000000 2
Si   -36.633248   277.964860     0.000000   0.025327  -0.451541   0.000000 2
Si   -39.349774   276.067998     1.920113   0.024251  -0.428290   0.000000 2
Si   -35.277522   276.041903     0.000000   0.023328  -0.454384   0.000000 2
Si   -31.206067   274.103429     0.000000   0.021608  -0.472746   0.000000 2
Si   -31.202913   277.929947     0.000000   0.024762  -0.486453   0.000000 2
Si   -33.919944   276.033389     1.920113   0.023181  -0.462899   0.000000 2
Si   -29.846710   276.008573     0.000000   0.023240  -0.487715   0.000000 2
Si   -25.774167   274.072882     0.000000   0.022608  -0.503293   0.000000 2
Si   -25.771168   277.897243     0.000000   0.025607  -0.519157   0.000000 2
Si   -28.488796   276.000584     1.920113   0.023429  -0.495704   0.000000 2
Si   -24.414544   275.977652     0.000000   0.024506  -0.518636   0.000000 2
Si   -20.340987   274.045321     0.000000   0.024888  -0.530854   0.000000 2
Si   -20.338003   277.867621     0.000000   0.027872  -0.548779   0.000000 2
Si   -23.056291   275.970395     1.920113   0.025034  -0.525892   0.000000 2
Si   -18.981041   275.949975     0.000000   0.027109  -0.546313   0.000000 2
Si   -14.906607   274.021536     0.000000   0.028368  -0.554639   0.000000 2
Si   -14.903495   277.841966     0.000000   0.031480  -0.574435   0.000000 2
Si   -17.622466   275.943661     1.920113   0.027959  -0.552627   0.000000 2
Si   -13.546303   275.926375     0.000000   0.030947  -0.569913   0.000000 2
Si    -9.471189   274.002283     0.000000   0.032886  -0.573892   0.000000 2
Si    -9.467818   277.821128     0.000000   0.036257  -0.595273   0.000000 2
Si   -12.187445   275.921205     1.920113   0.032080  -0.575082   0.000000 2
Si    -8.110518   275.907636     0.000000   0.035832  -0.588651   0.000000 2
Si    -4.034975   273.988240     0.000000   0.038200  -0.587934   0.000000 2
Si    -4.031239   277.805880     0.000000   0.041936  -0.610521   0.000000 2
Si    -6.751439   275.903796     1.920113   0.037186  -0.592492   0.000000 2
Si    -2.673964   275.894457     0.000000   0.041486  -0.601830   0.000000 2
Si     1.401714   273.979969     0.000000   0.043989  -0.596206   0.000000 2
Si     1.405883   277.796864     0.000000   0.048158  -0.619537   0.000000 2
Si    -1.314746   275.892101     1.920113   0.042979  -0.604187   0.000000 2
Si     2.763002   275.887399     0.000000   0.047552  -0.608889   0.000000 2
Si     4.122260   275.886640     1.920113   0.049085  -0.609648   0.000000 2
Si   -54.282769   270.414445     1.920113   0.026231  -0.321503   0.000000 2
Si   -54.278385   274.249097     1.920113   0.030615  -0.327077   0.000000 2
Si   -55.637360   272.340223     1.920113   0.029365  -0.315839   0.000000 2
Si   -51.567065   272.314669     0.000000   0.026485  -0.341393   0.000000 2
Si   -48.855179   270.381106     1.920113   0.022921  -0.354842   0.000000 2
Si   -48.851272   274.214076     1.920113   0.026828  -0.362099   0.000000 2
Si   -50.210202   272.306116     1.920113   0.025623  -0.349945   0.000000 2
Si   -46.139281   272.280468     0.000000   0.023369  -0.375593   0.000000 2
Si   -43.426718   270.347907     1.920113   0.020482  -0.388041   0.000000 2
Si   -43.423244   274.179050     1.920113   0.023956  -0.397125   0.000000 2
Si   -44.782189   272.271950     1.920113   0.022736  -0.384112   0.000000 2
Si   -40.710527   272.246616     0.000000   0.021223  -0.409446   0.000000 2
Si   -37.997252   270.315405     1.920113   0.019048  -0.420544   0.000000 2
Si   -37.994141   274.144612     1.920113   0.022159  -0.431563   0.000000 2
Si   -39.353171   272.238277     1.920113   0.020854  -0.417784   0.000000 2
Si   -35.280673   272.213725     0.000000   0.020177  -0.442336   0.000000 2
Si   -32.566680   270.284222     1.920113   0.018720  -0.451726   0.000000 2
Si   -32.563840   274.111438     1.920113   0.021560  -0.464736   0.000000 2
Si   -33.923026   272.205731     1.920113   0.020099  -0.450331   0.000000 2
Si   -29.849628   272.182477     0.000000   0.020322  -0.473585   0.000000 2
Si   -27.134947   270.255038     1.920113   0.019553  -0.480910   0.000000 2
Si   -27.132263   274.080270     1.920113   0.022237  -0.495905   0.000000 2
Si   -28.491675   272.175006     1.920113   0.020550  -0.481055   0.000000 2
Si   -24.417354   272.153601     0.000000   0.021696  -0.502461   0.000000 2
Si   -21.702050   270.228559     1.920113   0.021550  -0.507389   0.000000 2
Si   -21.699399   274.051888     1.920113   0.024201  -0.524287   0.000000 2
Si   -23.059095   272.146840     1.920113   0.022230  -0.509221   0.000000 2
Si   -18.983878   272.127849     0.000000   0.024272  -0.528213   0.000000 2
Si   -16.268053   270.205498     1.920113   0.024647  -0.530450   0.000000 2
Si   -16.265307   274.027086     1.920113   0.027393  -0.549089   0.000000 2
Si   -17.625331   272.121987     1.920113   0.025094  -0.534075   0.000000 2
Si   -13.549299   272.105964     0.000000   0.027951  -0.550098   0.000000 2
Si   -10.833089   270.186540     1.920113   0.028711  -0.549408   0.000000 2
Si   -10.830129   274.006632     1.920113   0.031671  -0.569542   0.000000 2
Si   -12.190501   272.101181     1.920113   0.029024  -0.554881   0.000000 2
Si    -8.113793   272.088643     0.000000   0.032557  -0.567419   0.000000 2
Si    -5.397363   270.172306     1.920113   0.033537  -0.563643   0.000000 2
Si    -5.394087   273.991229     1.920113   0.036813  -0.584945   0.000000 2
Si    -6.754799   272.085100     1.920113   0.033826  -0.570961   0.000000 2
Si    -2.677609   272.076499     0.000000   0.037841  -0.579563   0.000000 2
Si     0.038858   270.163316     1.920113   0.038858  -0.572633   0.000000 2
Si     0.042517   273.981471     1.920113   0.042517  -0.594704   0.000000 2
Si    -1.318493   272.074332     1.920113   0.039232  -0.581729   0.000000 2
Si     2.758936   272.070021     0.000000   0.043486  -0.586040   0.000000 2
Si     5.475248   270.159958     1.920113   0.044348  -0.575990   0.000000 2
Si     5.479316   273.977801     1.920113   0.048416  -0.598374   0.000000 2
Si     4.118087   272.069330     1.920113   0.044912  -0.586731   0.000000 2
Si   -52.911468   281.909964     0.000000   0.039807  -0.346663   0.000000 2
Si   -52.905364   285.745431     0.000000   0.045911  -0.351423   0.000000 2
Si   -55.621156   283.847220     1.920113   0.045569  -0.329520   0.000000 2
Si   -51.552109   283.817751     0.000000   0.041441  -0.358989   0.000000 2
Si   -47.485222   281.871154     0.000000   0.035153  -0.385473   0.000000 2
Si   -47.479733   285.704599     0.000000   0.040642  -0.392254   0.000000 2
Si   -50.195654   283.807815     1.920113   0.040171  -0.368926   0.000000 2
Si   -46.125918   283.777796     0.000000   0.036732  -0.398944   0.000000 2
Si   -42.057922   281.832115     0.000000   0.031553  -0.424512   0.000000 2
Si   -42.053005   285.663303     0.000000   0.036470  -0.433550   0.000000 2
Si   -44.769202   283.767753     1.920113   0.035723  -0.408987   0.000000 2
Si   -40.698590   283.737671     0.000000   0.033160  -0.439069   0.000000 2
Si   -36.629352   281.793555     0.000000   0.029223  -0.463072   0.000000 2
Si   -36.624926   285.622297     0.000000   0.033649  -0.474556   0.000000 2
Si   -39.341553   283.727699     1.920113   0.032472  -0.449042   0.000000 2
Si   -35.269899   283.698134     0.000000   0.030951  -0.478606   0.000000 2
Si   -31.199342   281.756285     0.000000   0.028333  -0.500342   0.000000 2
Si   -31.195287   285.582464     0.000000   0.032388  -0.514390   0.000000 2
Si   -33.912492   283.688442     1.920113   0.030633  -0.488298   0.000000 2
Si   -29.839671   283.660065     0.000000   0.030279  -0.516676   0.000000 2
Si   -25.767782   281.721217     0.000000   0.028993  -0.535410   0.000000 2
Si   -25.763949   285.544802     0.000000   0.032826  -0.552052   0.000000 2
Si   -28.481860   283.650888     1.920113   0.030365  -0.525852   0.000000 2
Si   -24.407802   283.624435     0.000000   0.031248  -0.552305   0.000000 2
Si   -20.334648   281.689320     0.000000   0.031227  -0.567307   0.000000 2
Si   -20.330865   285.510389     0.000000   0.035010  -0.586464   0.000000 2
Si   -23.049575   283.616029     1.920113   0.031750  -0.560711   0.000000 2
Si   -18.974283   283.592279     0.000000   0.033867  -0.584461   0.000000 2
Si   -14.900012   281.661586     0.000000   0.034963  -0.595041   0.000000 2
Si   -14.896102   285.480339     0.000000   0.038873  -0.616514   0.000000 2
Si   -17.615654   283.584906     1.920113   0.034771  -0.591834   0.000000 2
Si   -13.539211   283.564646     0.000000   0.038039  -0.612094   0.000000 2
Si    -9.464058   281.638976     0.000000   0.040017  -0.617651   0.000000 2
Si    -9.459852   285.455743     0.000000   0.044223  -0.641110   0.000000 2
Si   -12.180223   283.558565     1.920113   0.039302  -0.618175   0.000000 2
Si    -8.102805   283.542546     0.000000   0.043545  -0.634195   0.000000 2
Si    -4.027081   281.622372     0.000000   0.046094  -0.634255   0.000000 2
Si    -4.022440   285.437607     0.000000   0.050735  -0.659246   0.000000 2
Si    -6.743532   283.537995     1.920113   0.045093  -0.638745   0.000000 2
Si    -2.665405   283.526887     0.000000   0.050045  -0.649853   0.000000 2
Si     1.410518   281.612511     0.000000   0.052793  -0.644116   0.000000 2
Si     1.415685   285.426786     0.000000   0.057960  -0.670067   0.000000 2
Si    -1.305950   283.524072     1.920113   0.051775  -0.652668   0.000000 2
Si     2.772538   283.518418     0.000000   0.057088  -0.658322   0.000000 2
Si     4.132047   283.517491     1.920113   0.058872  -0.659249   0.000000 2
Si   -54.273450   278.084117     1.920113   0.035550  -0.332284   0.000000 2
Si   -54.267892   281.919561     1.920113   0.041108  -0.337066   0.000000 2
Si   -55.627204   280.011101     1.920113   0.039521  -0.325413   0.000000 2
Si   -51.557707   279.982997     0.000000   0.035843  -0.353517   0.000000 2
Si   -48.846860   278.047324     1.920113   0.031240  -0.369077   0.000000 2
Si   -48.841874   281.880903     1.920113   0.036226  -0.375724   0.000000 2
Si   -50.201104   279.973546     1.920113   0.034721  -0.362968   0.000000 2
Si   -46.130935   279.945070     0.000000   0.031715  -0.391444   0.000000 2
Si   -43.419313   278.010351     1.920113   0.027887  -0.406049   0.000000 2
Si   -43.414858   281.841860     1.920113   0.032342  -0.414767   0.000000 2
Si   -44.774081   279.935567     1.920113   0.030844  -0.400947   0.000000 2
Si   -40.703079   279.907177     0.000000   0.028671  -0.429337   0.000000 2
Si   -37.990619   277.973834     1.920113   0.025681  -0.442567   0.000000 2
Si   -37.986624   281.803107     1.920113   0.029676  -0.453520   0.000000 2
Si   -39.345923   279.897790     1.920113   0.028102  -0.438724   0.000000 2
Si   -35.273952   279.870029     0.000000   0.026898  -0.466485   0.000000 2
Si   -32.560627   277.938501     1.920113   0.024773  -0.477900   0.000000 2
Si   -32.556987   281.765432     1.920113   0.028413  -0.491195   0.000000 2
Si   -33.916453   279.860950     1.920113   0.026672  -0.475564   0.000000 2
Si   -29.843410   279.834431     0.000000   0.026540  -0.502083   0.000000 2
Si   -27.129239   277.905165     1.920113   0.025261  -0.511235   0.000000 2
Si   -27.125820   281.729726     1.920113   0.028680  -0.526901   0.000000 2
Si   -28.485543   279.825875     1.920113   0.026682  -0.510639   0.000000 2
Si   -24.411378   279.801266     0.000000   0.027672  -0.535248   0.000000 2
Si   -21.696424   277.874690     1.920113   0.027176  -0.541711   0.000000 2
Si   -21.693077   281.696943     1.920113   0.030523  -0.559684   0.000000 2
Si   -23.053136   279.793463     1.920113   0.028189  -0.543051   0.000000 2
Si   -18.977860   279.771464     0.000000   0.030290  -0.565050   0.000000 2
Si   -16.262240   277.847960     1.920113   0.030460  -0.568440   0.000000 2
Si   -16.258804   281.668076     1.920113   0.033896  -0.588551   0.000000 2
Si   -17.619258   279.764648     1.920113   0.031167  -0.571866   0.000000 2
Si   -13.542957   279.745956     0.000000   0.034293  -0.590558   0.000000 2
Si   -10.826834   277.825842     1.920113   0.034966  -0.590559   0.000000 2
Si   -10.823156   281.644098     1.920113   0.038644  -0.612529   0.000000 2
Si   -12.184037   279.740356     1.920113   0.035488  -0.596158   0.000000 2
Si    -8.106873   279.725633     0.000000   0.039477  -0.610881   0.000000 2
Si    -5.390450   277.809130     1.920113   0.040450  -0.607270   0.000000 2
Si    -5.386401   281.625917     1.920113   0.044499  -0.630710   0.000000 2
Si    -6.747702   279.721458     1.920113   0.040923  -0.615056   0.000000 2
Si    -2.669916   279.711289     0.000000   0.045534  -0.625225   0.000000 2
Si     0.046574   277.798505     1.920113   0.046574  -0.617896   0.000000 2
Si     0.051085   281.614311     1.920113   0.051085  -0.642316   0.000000 2
Si    -1.310585   279.708717     1.920113   0.047140  -0.627797   0.000000 2
Si     2.767515   279.703571     0.000000   0.052065  -0.632943   0.000000 2
Si     5.483823   277.794479     1.920113   0.052923  -0.621922   0.000000 2
Si     5.488832   281.609876     1.920113   0.057932  -0.646751   0.000000 2
Si     4.126892   279.702734     1.920113   0.053717  -0.633780   0.000000 2
Si   -52.898476   289.581434     0.000000   0.052799  -0.355645   0.000000 2
Si   -52.890701   293.418053     0.000000   0.060574  -0.359252   0.000000 2
Si   -55.606684   291.521145     1.920113   0.060041  -0.336047   0.000000 2
Si   -51.538644   291.488771     0.000000   0.054906  -0.368422   0.000000 2
Si   -47.473514   289.538477     0.000000   0.046861  -0.398602   0.000000 2
Si   -47.466462   293.372868     0.000000   0.053913  -0.404438   0.000000 2
Si   -50.182525   291.477790     1.920113   0.053300  -0.379402   0.000000 2
Si   -46.113780   291.444420     0.000000   0.048870  -0.412773   0.000000 2
Si   -42.047417   289.494778     0.000000   0.042058  -0.442302   0.000000 2
Si   -42.041058   293.326610     0.000000   0.048417  -0.450696   0.000000 2
Si   -44.757384   291.433190     1.920113   0.047541  -0.424003   0.000000 2
Si   -40.687682   291.399357     0.000000   0.044068  -0.457835   0.000000 2
Si   -36.619887   289.451137     0.000000   0.038688  -0.485943   0.000000 2
Si   -36.614140   293.280129     0.000000   0.044435  -0.497176   0.000000 2
Si   -39.330927   291.388078     1.920113   0.043098  -0.469115   0.000000 2
Si   -35.260036   291.354452     0.000000   0.040814  -0.502740   0.000000 2
Si   -31.190672   289.408511     0.000000   0.037003  -0.528569   0.000000 2
Si   -31.185407   293.234462     0.000000   0.042268  -0.542843   0.000000 2
Si   -33.902851   291.343368     1.920113   0.040274  -0.513824   0.000000 2
Si   -29.830583   291.310743     0.000000   0.039367  -0.546449   0.000000 2
Si   -25.759596   289.367999     0.000000   0.037179  -0.569081   0.000000 2
Si   -25.754638   293.190816     0.000000   0.042137  -0.586490   0.000000 2
Si   -28.472914   291.300139     1.920113   0.039311  -0.557054   0.000000 2
Si   -24.399149   291.269414     0.000000   0.039901  -0.587779   0.000000 2
Si   -20.326585   289.330800     0.000000   0.039290  -0.606279   0.000000 2
Si   -20.321727   293.150526     0.000000   0.044148  -0.626780   0.000000 2
Si   -23.040971   291.259602     1.920113   0.040354  -0.597590   0.000000 2
Si   -18.965678   291.231750     0.000000   0.042472  -0.625442   0.000000 2
Si   -14.891697   289.298166     0.000000   0.043278  -0.638914   0.000000 2
Si   -14.886715   293.115001     0.000000   0.048260  -0.662305   0.000000 2
Si   -17.606998   291.223063     1.920113   0.043427  -0.634129   0.000000 2
Si   -13.530256   291.199087     0.000000   0.046994  -0.658106   0.000000 2
Si    -9.455130   289.271336     0.000000   0.048945  -0.665744   0.000000 2
Si    -9.449811   293.085654     0.000000   0.054264  -0.691652   0.000000 2
Si   -12.171121   291.191857     1.920113   0.048404  -0.665335   0.000000 2
Si    -8.093129   291.172732     0.000000   0.053221  -0.684461   0.000000 2
Si    -4.017242   289.251466     0.000000   0.055933  -0.685613   0.000000 2
Si    -4.011401   293.063813     0.000000   0.061774  -0.713492   0.000000 2
Si    -6.733626   291.167274     1.920113   0.054999  -0.689918   0.000000 2
Si    -2.654711   291.153891     0.000000   0.060739  -0.703301   0.000000 2
Si     1.421463   289.239546     0.000000   0.063738  -0.697534   0.000000 2
Si     1.427947   293.050631     0.000000   0.070222  -0.726674   0.000000 2
Si    -1.294969   291.150479     1.920113   0.062756  -0.706714   0.000000 2
Si     2.784426   291.143574     0.000000   0.068976  -0.713619   0.000000 2
Si     4.144242   291.142419     1.920113   0.071067  -0.714774   0.000000 2
Si   -54.261632   285.755492     1.920113   0.047368  -0.341361   0.000000 2
Si   -54.254576   289.591980     1.920113   0.054424  -0.345099   0.000000 2
Si   -55.614348   287.683878     1.920113   0.052377  -0.333089   0.000000 2
Si   -51.545787   287.652984     0.000000   0.047763  -0.363982   0.000000 2
Si   -48.836233   285.714877     1.920113   0.041867  -0.381976   0.000000 2
Si   -48.829848   289.549314     1.920113   0.048252  -0.387765   0.000000 2
Si   -50.189494   287.642538     1.920113   0.046331  -0.374429   0.000000 2
Si   -46.120232   287.610889     0.000000   0.042418  -0.406077   0.000000 2
Si   -43.409804   285.673632     1.920113   0.037396  -0.423221   0.000000 2
Si   -43.404064   289.505732     1.920113   0.043136  -0.431348   0.000000 2
Si   -44.763668   287.600270     1.920113   0.041257  -0.416696   0.000000 2
Si   -40.693488   287.568376     0.000000   0.038262  -0.448590   0.000000 2
Si   -37.982085   285.632475     1.920113   0.034215  -0.464378   0.000000 2
Si   -37.976918   289.461991     1.920113   0.039382  -0.475088   0.000000 2
Si   -39.336584   287.557774     1.920113   0.037441  -0.459192   0.000000 2
Si   -35.265289   287.526259     0.000000   0.035561  -0.490707   0.000000 2
Si   -32.552852   285.592258     1.920113   0.032548  -0.504595   0.000000 2
Si   -32.548145   289.419013     1.920113   0.037255  -0.518066   0.000000 2
Si   -33.907986   287.515901     1.920113   0.035139  -0.501066   0.000000 2
Si   -29.835422   287.485494     0.000000   0.034528  -0.531473   0.000000 2
Si   -27.121947   285.553956     1.920113   0.032553  -0.542897   0.000000 2
Si   -27.117545   289.377865     1.920113   0.036955  -0.559215   0.000000 2
Si   -28.477677   287.475637     1.920113   0.034548  -0.541330   0.000000 2
Si   -24.403752   287.447152     0.000000   0.035298  -0.569814   0.000000 2
Si   -21.689298   285.518627     1.920113   0.034302  -0.578226   0.000000 2
Si   -21.685019   289.339721     1.920113   0.038581  -0.597358   0.000000 2
Si   -23.045546   287.438079     1.920113   0.035779  -0.578887   0.000000 2
Si   -18.970247   287.412387     0.000000   0.037903  -0.604579   0.000000 2
Si   -16.254942   285.487382     1.920113   0.037758  -0.609471   0.000000 2
Si   -16.250586   289.305828     1.920113   0.042114  -0.631252   0.000000 2
Si   -17.611592   287.404393     1.920113   0.038833  -0.612573   0.000000 2
Si   -13.535002   287.382380     0.000000   0.042248  -0.634586   0.000000 2
Si   -10.819038   285.461323     1.920113   0.042762  -0.635530   0.000000 2
Si   -10.814412   289.277434     1.920113   0.047388  -0.659646   0.000000 2
Si   -12.175943   287.375759     1.920113   0.043582  -0.641208   0.000000 2
Si    -8.098249   287.358280     0.000000   0.048101  -0.658686   0.000000 2
Si    -5.381879   285.441486     1.920113   0.049021  -0.655368   0.000000 2
Si    -5.376813   289.255723     1.920113   0.054087  -0.681356   0.000000 2
Si    -6.738866   287.353305     1.920113   0.049759  -0.663662   0.000000 2
Si    -2.660364   287.341133     0.000000   0.055086  -0.675834   0.000000 2
Si     0.056116   285.428767     1.920113   0.056116  -0.668087   0.000000 2
Si     0.061743   289.241735     1.920113   0.061743  -0.695344   0.000000 2
Si    -1.300772   287.338039     1.920113   0.056953  -0.678927   0.000000 2
Si     2.778146   287.331804     0.000000   0.062696  -0.685162   0.000000 2
Si     5.494413   285.423859     1.920113   0.063513  -0.672994   0.000000 2
Si     5.500651   289.236280     1.920113   0.069751  -0.700799   0.000000 2
Si     4.137800   287.330772     1.920113   0.064625  -0.686194   0.000000 2
Si   -52.881923   297.255373     0.000000   0.069352  -0.362159   0.000000 2
Si   -52.872011   301.093487     0.000000   0.079264  -0.364271   0.000000 2
Si   -55.588339   299.197834     1.920113   0.078386  -0.339811   0.000000 2
Si   -51.521441   299.162345     0.000000   0.072109  -0.375300   0.000000 2
Si   -47.458460   297.207857     0.000000   0.061915  -0.409675   0.000000 2
Si   -47.449377   301.043545     0.000000   0.070998  -0.414213   0.000000 2
Si   -50.165711   299.150224     1.920113   0.070114  -0.387421   0.000000 2
Si   -46.098131   299.113135     0.000000   0.064519  -0.424510   0.000000 2
Si   -42.033814   297.158881     0.000000   0.055661  -0.458650   0.000000 2
Si   -42.025554   300.991687     0.000000   0.063921  -0.466071   0.000000 2
Si   -44.742118   299.100568     1.920113   0.062807  -0.437077   0.000000 2
Si   -40.673521   299.062453     0.000000   0.058229  -0.475192   0.000000 2
Si   -36.607577   297.109343     0.000000   0.050998  -0.508188   0.000000 2
Si   -36.600068   300.938858     0.000000   0.058507  -0.518900   0.000000 2
Si   -39.317114   299.049662     1.920113   0.056911  -0.487983   0.000000 2
Si   -35.247180   299.011282     0.000000   0.053670  -0.526363   0.000000 2
Si   -31.179388   297.060362     0.000000   0.048287  -0.557170   0.000000 2
Si   -31.172490   300.886265     0.000000   0.055185  -0.571493   0.000000 2
Si   -33.890278   298.998550     1.920113   0.052847  -0.539095   0.000000 2
Si   -29.818730   298.960844     0.000000   0.051220  -0.576801   0.000000 2
Si   -25.748974   297.013265     0.000000   0.047801  -0.604267   0.000000 2
Si   -25.742486   300.835366     0.000000   0.054289  -0.622393   0.000000 2
Si   -28.461254   298.948514     1.920113   0.050971  -0.589131   0.000000 2
Si   -24.387901   298.912581     0.000000   0.051149  -0.625064   0.000000 2
Si   -20.316192   296.969540     0.000000   0.049683  -0.647992   0.000000 2
Si   -20.309863   300.787820     0.000000   0.056012  -0.669938   0.000000 2
Si   -23.029803   298.901040     1.920113   0.051522  -0.636605   0.000000 2
Si   -18.954566   298.868100     0.000000   0.053584  -0.669545   0.000000 2
Si   -14.881061   296.930777     0.000000   0.053914  -0.686755   0.000000 2
Si   -14.874617   300.745422     0.000000   0.060358  -0.712336   0.000000 2
Si   -17.595843   298.857769     1.920113   0.054582  -0.679876   0.000000 2
Si   -13.518781   298.829106     0.000000   0.058469  -0.708539   0.000000 2
Si    -9.443794   296.898585     0.000000   0.060281  -0.718947   0.000000 2
Si    -9.436963   300.710008     0.000000   0.067112  -0.747750   0.000000 2
Si   -12.159479   298.820417     1.920113   0.060046  -0.717228   0.000000 2
Si    -8.080817   298.797310     0.000000   0.065533  -0.740335   0.000000 2
Si    -4.004814   296.874498     0.000000   0.068361  -0.743034   0.000000 2
Si    -3.997355   300.683351     0.000000   0.075820  -0.774407   0.000000 2
Si    -6.721038   298.790679     1.920113   0.067587  -0.746966   0.000000 2
Si    -2.641168   298.774326     0.000000   0.074282  -0.763319   0.000000 2
Si     1.435248   296.859861     0.000000   0.077523  -0.757671   0.000000 2
Si     1.443500   300.667029     0.000000   0.085775  -0.790730   0.000000 2
Si    -1.281073   298.770126     1.920113   0.076652  -0.767519   0.000000 2
Si     2.799441   298.761540     0.000000   0.083991  -0.776105   0.000000 2
Si     4.159639   298.760069     1.920113   0.086464  -0.777576   0.000000 2
Si   -54.246621   293.429101     1.920113   0.062379  -0.348204   0.000000 2
Si   -54.237653   297.266941     1.920113   0.071347  -0.350591   0.000000 2
Si   -55.598055   295.359102     1.920113   0.068670  -0.338316   0.000000 2
Si   -51.530570   295.325194     0.000000   0.062980  -0.372225   0.000000 2
Si   -48.822617   293.384294     1.920113   0.055483  -0.393012   0.000000 2
Si   -48.814421   297.219903     1.920113   0.063679  -0.397628   0.000000 2
Si   -50.174639   295.313655     1.920113   0.061186  -0.383764   0.000000 2
Si   -46.106455   295.278471     0.000000   0.056195  -0.418948   0.000000 2
Si   -43.397538   293.338232     1.920113   0.049662  -0.439074   0.000000 2
Si   -43.390109   297.171218     1.920113   0.057091  -0.446314   0.000000 2
Si   -44.750242   295.266592     1.920113   0.054683  -0.430827   0.000000 2
Si   -40.681067   295.230688     0.000000   0.050683  -0.466731   0.000000 2
Si   -37.971029   293.291716     1.920113   0.045271  -0.485590   0.000000 2
Si   -37.964306   297.121722     1.920113   0.051994  -0.495809   0.000000 2
Si   -39.324478   295.218680     1.920113   0.049547  -0.478739   0.000000 2
Si   -35.254039   295.182770     0.000000   0.046811  -0.514649   0.000000 2
Si   -32.542775   293.245738     1.920113   0.042625  -0.531567   0.000000 2
Si   -32.536635   297.072485     1.920113   0.048765  -0.545047   0.000000 2
Si   -33.896987   295.170897     1.920113   0.046138  -0.526521   0.000000 2
Si   -29.825056   295.135846     0.000000   0.044894  -0.561573   0.000000 2
Si   -27.112529   293.201467     1.920113   0.041971  -0.575839   0.000000 2
Si   -27.106797   297.024784     1.920113   0.047703  -0.592748   0.000000 2
Si   -28.467477   295.124420     1.920113   0.044748  -0.572999   0.000000 2
Si   -24.393901   295.091221     0.000000   0.045149  -0.606197   0.000000 2
Si   -21.680156   293.160207     1.920113   0.043444  -0.617098   0.000000 2
Si   -21.674611   296.980070     1.920113   0.048989  -0.637462   0.000000 2
Si   -23.035760   295.080591     1.920113   0.045565  -0.616828   0.000000 2
Si   -18.960486   295.050333     0.000000   0.047664  -0.647085   0.000000 2
Si   -16.245657   293.123358     1.920113   0.047043  -0.653948   0.000000 2
Si   -16.240056   296.939914     1.920113   0.052644  -0.677617   0.000000 2
Si   -17.601784   295.040871     1.920113   0.048641  -0.656548   0.000000 2
Si   -13.524884   295.014689     0.000000   0.052366  -0.682730   0.000000 2
Si   -10.809196   293.092337     1.920113   0.052604  -0.684969   0.000000 2
Si   -10.803292   296.905931     1.920113   0.058508  -0.711601   0.000000 2
Si   -12.165668   295.006775     1.920113   0.053857  -0.690644   0.000000 2
Si    -8.087355   294.985785     0.000000   0.058995  -0.711634   0.000000 2
Si    -5.371117   293.068503     1.920113   0.059783  -0.708803   0.000000 2
Si    -5.364689   296.879682     1.920113   0.066211  -0.737850   0.000000 2
Si    -6.727720   294.979779     1.920113   0.060905  -0.717640   0.000000 2
Si    -2.648351   294.965012     0.000000   0.067099  -0.732407   0.000000 2
Si     0.068059   293.053062     1.920113   0.068059  -0.724244   0.000000 2
Si     0.075173   296.862571     1.920113   0.075173  -0.754961   0.000000 2
Si    -1.288442   294.961234     1.920113   0.069283  -0.736185   0.000000 2
Si     2.791483   294.953553     0.000000   0.076033  -0.743866   0.000000 2
Si     5.507646   293.046967     1.920113   0.076746  -0.730338   0.000000 2
Si     5.515517   296.855726     1.920113   0.084617  -0.761806   0.000000 2
Si     4.151479   294.952253     1.920113   0.078304  -0.745166   0.000000 2
Si   -52.860820   304.932499     0.000000   0.090455  -0.365485   0.000000 2
Si   -52.848187   308.772520     0.000000   0.103088  -0.365690   0.000000 3
Si   -55.565093   306.877998     1.920113   0.101632  -0.340100   0.000000 2
Si   -51.499445   306.839241     0.000000   0.094105  -0.378856   0.000000 2
Si   -47.439062   304.880042     0.000000   0.081313  -0.417943   0.000000 2
Si   -47.427346   308.717470     0.000000   0.093029  -0.420741   0.000000 3
Si   -50.144151   306.825897     1.920113   0.091674  -0.392200   0.000000 2
Si   -46.077906   306.784733     0.000000   0.084744  -0.433365   0.000000 2
Si   -42.016128   304.825135     0.000000   0.073347  -0.472849   0.000000 2
Si   -42.005364   308.659348     0.000000   0.084111  -0.478863   0.000000 3
Si   -44.722340   306.770674     1.920113   0.082585  -0.447424   0.000000 2
Si   -40.655057   306.727696     0.000000   0.076693  -0.490401   0.000000 2
Si   -36.591466   304.768767     0.000000   0.067109  -0.529218   0.000000 2
Si   -36.581601   308.599177     0.000000   0.076974  -0.539034   0.000000 3
Si   -39.299070   306.713161     1.920113   0.074955  -0.504936   0.000000 2
Si   -35.230307   306.669220     0.000000   0.070543  -0.548877   0.000000 2
Si   -31.164569   304.712236     0.000000   0.063106  -0.585749   0.000000 2
Si   -31.155456   308.538353     0.000000   0.072219  -0.599858   0.000000 3
Si   -33.873758   306.654537     1.920113   0.069367  -0.563560   0.000000 2
Si   -29.803125   306.610741     0.000000   0.066825  -0.607357   0.000000 2
Si   -25.735030   304.657144     0.000000   0.061745  -0.640840   0.000000 2
Si   -25.726438   308.478635     0.000000   0.070337  -0.659575   0.000000 3
Si   -28.445897   306.596319     1.920113   0.066328  -0.621778   0.000000 2
Si   -24.373098   306.554010     0.000000   0.065952  -0.664087   0.000000 2
Si   -20.302600   304.605343     0.000000   0.063275  -0.692641   0.000000 2
Si   -20.294233   308.422091     0.000000   0.071642  -0.716120   0.000000 3
Si   -23.015116   306.540332     1.920113   0.066209  -0.677765   0.000000 2
Si   -18.940000   306.501043     0.000000   0.068150  -0.717054   0.000000 2
Si   -14.867243   304.558858     0.000000   0.067732  -0.739126   0.000000 2
Si   -14.858765   308.371007     0.000000   0.076210  -0.767204   0.000000 3
Si   -17.581240   306.488643     1.920113   0.069185  -0.729455   0.000000 2
Si   -13.503836   306.454025     0.000000   0.073414  -0.764073   0.000000 2
Si    -9.429170   304.519789     0.000000   0.074905  -0.778196   0.000000 2
Si    -9.420241   308.327781     0.000000   0.083834  -0.810430   0.000000 3
Si   -12.144343   306.443464     1.920113   0.075182  -0.774634   0.000000 2
Si    -8.064890   306.415202     0.000000   0.081460  -0.802895   0.000000 2
Si    -3.988874   304.490184     0.000000   0.084301  -0.807800   0.000000 2
Si    -3.979187   308.294786     0.000000   0.093988  -0.843425   0.000000 3
Si    -6.704780   306.407036     1.920113   0.083845  -0.811062   0.000000 2
Si    -2.623746   306.386748     0.000000   0.091704  -0.831350   0.000000 2
Si     1.452864   304.471899     0.000000   0.095139  -0.826085   0.000000 2
Si    -1.263216   306.381489     1.920113   0.094509  -0.836608   0.000000 2
Si     2.818693   306.370599     0.000000   0.103243  -0.847499   0.000000 2
Si     4.179370   306.368673     1.920113   0.106195  -0.849424   0.000000 2
Si   -54.227541   301.105589     1.920113   0.081459  -0.352169   0.000000 2
Si   -54.216140   304.945146     1.920113   0.092860  -0.352838   0.000000 2
Si   -55.577402   303.037433     1.920113   0.089323  -0.340439   0.000000 2
Si   -51.511118   303.000324     0.000000   0.082432  -0.377548   0.000000 2
Si   -48.805128   301.056242     1.920113   0.072972  -0.401517   0.000000 2
Si   -48.794590   304.893417     1.920113   0.083510  -0.404567   0.000000 2
Si   -50.155600   302.987601     1.920113   0.080225  -0.390270   0.000000 2
Si   -46.088668   302.948517     0.000000   0.073982  -0.429355   0.000000 2
Si   -43.381648   301.004785     1.920113   0.065552  -0.452973   0.000000 2
Si   -43.372002   304.839043     1.920113   0.075198  -0.458941   0.000000 2
Si   -44.732871   302.935223     1.920113   0.072054  -0.442648   0.000000 2
Si   -40.664905   302.894752     0.000000   0.066845  -0.483119   0.000000 2
Si   -37.956620   300.952094     1.920113   0.059680  -0.505664   0.000000 2
Si   -37.947823   304.782930     1.920113   0.068477  -0.515055   0.000000 2
Si   -39.308698   302.881120     1.920113   0.065327  -0.496752   0.000000 2
Si   -35.239322   302.840067     0.000000   0.061528  -0.537804   0.000000 2
Si   -32.529601   300.899314     1.920113   0.055799  -0.558444   0.000000 2
Si   -32.521528   304.726300     1.920113   0.063872  -0.571685   0.000000 2
Si   -33.882587   302.826401     1.920113   0.060538  -0.551470   0.000000 2
Si   -29.811472   302.785788     0.000000   0.058478  -0.592083   0.000000 2
Si   -27.100228   300.847844     1.920113   0.054272  -0.609914   0.000000 2
Si   -27.092679   304.670685     1.920113   0.061821  -0.627300   0.000000 2
Si   -28.454112   302.772463     1.920113   0.058113  -0.605409   0.000000 2
Si   -24.381018   302.733504     0.000000   0.058032  -0.644367   0.000000 2
Si   -21.668268   300.799296     1.920113   0.055332  -0.658462   0.000000 2
Si   -21.660984   304.617876     1.920113   0.062616  -0.680108   0.000000 2
Si   -23.022974   302.720952     1.920113   0.058351  -0.656919   0.000000 2
Si   -18.947788   302.685014     0.000000   0.060362  -0.692857   0.000000 2
Si   -16.233667   300.755438     1.920113   0.059033  -0.702320   0.000000 2
Si   -16.226349   304.569867     1.920113   0.066351  -0.728118   0.000000 2
Si   -17.589046   302.673709     1.920113   0.061379  -0.704162   0.000000 2
Si   -13.511817   302.642249     0.000000   0.065433  -0.735623   0.000000 2
Si   -10.796581   300.718108     1.920113   0.065219  -0.739650   0.000000 2
Si   -10.788921   304.528747     1.920113   0.072879  -0.769237   0.000000 2
Si   -12.152423   302.632683     1.920113   0.067102  -0.745188   0.000000 2
Si    -8.073382   302.607168     0.000000   0.072968  -0.770703   0.000000 2
Si    -5.357406   300.689104     1.920113   0.073494  -0.768654   0.000000 2
Si    -5.349119   304.496592     1.920113   0.081781  -0.801393   0.000000 2
Si    -6.713445   302.599822     1.920113   0.075180  -0.778049   0.000000 2
Si    -2.633023   302.581642     0.000000   0.082427  -0.796229   0.000000 2
Si     0.083217   300.670065     1.920113   0.083217  -0.787693   0.000000 2
Si     0.092348   304.475320     1.920113   0.092348  -0.822665   0.000000 2
Si    -1.272722   302.576953     1.920113   0.085003  -0.800918   0.000000 2
Si     2.808451   302.567309     0.000000   0.093001  -0.810562   0.000000 2
Si     5.524406   300.662332     1.920113   0.093506  -0.795426   0.000000 2
Si     5.534484   304.466529     1.920113   0.103584  -0.831456   0.000000 2
Si     4.168875   302.565632     1.920113   0.095700  -0.812239   0.000000 2
Si   -52.833931   312.613671     0.000000   0.117344  -0.364766   0.000000 3
Si   -52.817855   316.456079     0.000000   0.133420  -0.362584   0.000000 3
Si   -55.535684   314.562453     1.920113   0.131041  -0.336097   0.000000 3
Si   -51.471337   314.520383     0.000000   0.122213  -0.378167   0.000000 3
Si   -47.414040   312.555966     0.000000   0.106335  -0.422471   0.000000 3
Si   -47.398931   316.395683     0.000000   0.121444  -0.422980   0.000000 3
Si   -50.116511   314.505759     1.920113   0.119314  -0.392790   0.000000 3
Si   -46.051742   314.460211     0.000000   0.110908  -0.438339   0.000000 3
Si   -41.993069   312.494464     0.000000   0.096406  -0.483973   0.000000 3
Si   -41.979022   316.330642     0.000000   0.110453  -0.488020   0.000000 3
Si   -44.696681   314.444507     1.920113   0.108244  -0.454043   0.000000 3
Si   -40.630912   314.396054     0.000000   0.100838  -0.502496   0.000000 3
Si   -36.570277   312.430214     0.000000   0.088298  -0.548223   0.000000 3
Si   -36.557269   316.262021     0.000000   0.101306  -0.556642   0.000000 3
Si   -39.275418   314.379519     1.920113   0.098607  -0.519031   0.000000 3
Si   -35.208049   314.329089     0.000000   0.092801  -0.569461   0.000000 3
Si   -31.144955   312.364709     0.000000   0.082720  -0.613728   0.000000 3
Si   -31.132836   316.191412     0.000000   0.094839  -0.627251   0.000000 3
Si   -33.851926   314.312094     1.920113   0.091199  -0.586456   0.000000 3
Si   -29.782405   314.260987     0.000000   0.087545  -0.637563   0.000000 3
Si   -25.716512   312.299884     0.000000   0.080263  -0.678552   0.000000 3
Si   -25.705017   316.120945     0.000000   0.091758  -0.697718   0.000000 3
Si   -28.425485   314.244024     1.920113   0.086740  -0.654525   0.000000 3
Si   -24.353379   314.193885     0.000000   0.085671  -0.704665   0.000000 3
Si   -20.284560   312.238047     0.000000   0.081315  -0.740390   0.000000 3
Si   -20.273334   316.053199     0.000000   0.092541  -0.765464   0.000000 3
Si   -22.995544   314.177555     1.920113   0.085781  -0.720995   0.000000 3
Si   -18.920604   314.130312     0.000000   0.087546  -0.768238   0.000000 3
Si   -14.848976   312.181782     0.000000   0.085999  -0.796655   0.000000 3
Si   -14.837619   315.991094     0.000000   0.097356  -0.827569   0.000000 3
Si   -17.561810   314.115294     1.920113   0.088615  -0.783256   0.000000 3
Si   -13.484017   314.073070     0.000000   0.093233  -0.825480   0.000000 3
Si    -9.409960   312.133825     0.000000   0.094115  -0.844612   0.000000 3
Si    -9.398060   315.937748     0.000000   0.106015  -0.880915   0.000000 3
Si   -12.124299   314.060093     1.920113   0.095226  -0.838457   0.000000 3
Si    -8.043901   314.025103     0.000000   0.102449  -0.873447   0.000000 3
Si    -3.968068   312.096920     0.000000   0.105107  -0.881517   0.000000 3
Si    -3.955243   315.896327     0.000000   0.117932  -0.922336   0.000000 3
Si    -6.683391   314.014907     1.920113   0.105234  -0.883643   0.000000 3
Si    -2.600931   313.989340     0.000000   0.114519  -0.909210   0.000000 3
Si    -1.239861   313.982633     1.920113   0.117864  -0.915917   0.000000 3
Si   -54.203292   308.785719     1.920113   0.105708  -0.352492   0.000000 3
Si   -54.188818   312.627422     1.920113   0.120182  -0.351015   0.000000 3
Si   -55.551247   310.719634     1.920113   0.115478  -0.338690   0.000000 3
Si   -51.486249   310.679217     0.000000   0.107301  -0.379106   0.000000 3
Si   -48.782639   308.731552     1.920113   0.095461  -0.406658   0.000000 3
Si   -48.769086   312.570780     1.920113   0.109014  -0.407657   0.000000 3
Si   -50.131186   310.665238     1.920113   0.104639  -0.393085   0.000000 3
Si   -46.065665   310.621915     0.000000   0.096985  -0.436408   0.000000 3
Si   -43.361002   308.674117     1.920113   0.086198  -0.464094   0.000000 3
Si   -43.348453   312.510146     1.920113   0.098747  -0.468291   0.000000 3
Si   -44.710345   310.607052     1.920113   0.094580  -0.451271   0.000000 3
Si   -40.643795   310.561414     0.000000   0.087955  -0.496909   0.000000 3
Si   -37.937743   308.614341     1.920113   0.078557  -0.523869   0.000000 3
Si   -37.926186   312.446459     1.920113   0.090114  -0.531978   0.000000 3
Si   -39.288046   310.545913     1.920113   0.085979  -0.512410   0.000000 3
Si   -35.219953   310.498852     0.000000   0.080897  -0.559472   0.000000 3
Si   -32.512245   308.553529     1.920113   0.073155  -0.584682   0.000000 3
Si   -32.501558   312.381103     1.920113   0.083842  -0.597334   0.000000 3
Si   -33.863608   310.483062     1.920113   0.079517  -0.575262   0.000000 3
Si   -29.793507   310.435777     0.000000   0.076443  -0.622546   0.000000 3
Si   -27.083983   308.493353     1.920113   0.070517  -0.644858   0.000000 3
Si   -27.073941   312.315906     1.920113   0.080559  -0.662530   0.000000 3
Si   -28.436426   310.420147     1.920113   0.075799  -0.638176   0.000000 3
Si   -24.363958   310.374126     0.000000   0.075092  -0.684198   0.000000 3
Si   -21.652592   308.435807     1.920113   0.071008  -0.702403   0.000000 3
Si   -21.642889   312.253089     1.920113   0.080711  -0.725348   0.000000 3
Si   -23.006046   310.359194     1.920113   0.075279  -0.699130   0.000000 3
Si   -18.931013   310.316153     0.000000   0.077137  -0.742171   0.000000 3
Si   -16.217932   308.383135     1.920113   0.074768  -0.755075   0.000000 3
Si   -16.208207   312.195178     1.920113   0.084493  -0.783259   0.000000 3
Si   -17.572237   310.302521     1.920113   0.078188  -0.755803   0.000000 3
Si   -13.494647   310.264334     0.000000   0.082603  -0.793990   0.000000 3
Si   -10.780136   308.337719     1.920113   0.081664  -0.800492   0.000000 3
Si   -10.770012   312.144884     1.920113   0.091788  -0.833553   0.000000 3
Si   -12.135047   310.252642     1.920113   0.084478  -0.805681   0.000000 3
Si    -8.055144   310.221242     0.000000   0.091206  -0.837081   0.000000 3
Si    -5.339646   308.301951     1.920113   0.091254  -0.836260   0.000000 3
Si    -5.328766   312.104965     1.920113   0.102134  -0.873472   0.000000 3
Si    -6.694843   310.212133     1.920113   0.093782  -0.846191   0.000000 3
Si    -2.613133   310.189403     0.000000   0.102317  -0.868920   0.000000 3
Si     0.102759   308.278079     1.920113   0.102759  -0.860131   0.000000 3
Si     0.114683   312.078056     1.920113   0.114683  -0.900381   0.000000 3
Si    -1.252347   310.183479     1.920113   0.105378  -0.874845   0.000000 3
Si   -52.799743   320.299882     0.000000   0.151532  -0.359007   0.000000 3
Si   -52.779360   324.145222     0.000000   0.171915  -0.353893   0.000000 3
Si   -55.498609   322.252101     1.920113   0.168116  -0.326902   0.000000 3
Si   -51.435496   322.206855     0.000000   0.158054  -0.372147   0.000000 3
Si   -47.381784   320.236787     0.000000   0.138591  -0.422102   0.000000 3
Si   -47.362338   324.079464     0.000000   0.158037  -0.419651   0.000000 3
Si   -50.081140   322.190946     1.920113   0.154685  -0.388056   0.000000 3
Si   -46.017916   322.140815     0.000000   0.144734  -0.438188   0.000000 3
Si   -41.962976   320.168063     0.000000   0.126499  -0.490826   0.000000 3
Si   -41.944656   324.006929     0.000000   0.144819  -0.492186   0.000000 3
Si   -44.663403   322.123334     1.920113   0.141522  -0.455669   0.000000 3
Si   -40.599314   322.068789     0.000000   0.132436  -0.510213   0.000000 3
Si   -36.542324   320.094764     0.000000   0.116251  -0.564125   0.000000 3
Si   -36.525157   323.928634     0.000000   0.133418  -0.570481   0.000000 3
Si   -39.244377   322.049974     1.920113   0.129648  -0.529029   0.000000 3
Si   -35.178603   321.991991     0.000000   0.122247  -0.587011   0.000000 3
Si   -31.118840   320.018588     0.000000   0.108835  -0.640301   0.000000 3
Si   -31.102667   323.846381     0.000000   0.125008  -0.652735   0.000000 3
Si   -33.822969   321.972256     1.920113   0.120156  -0.606746   0.000000 3
Si   -29.754729   321.912355     0.000000   0.115221  -0.666647   0.000000 3
Si   -25.691678   319.941881     0.000000   0.105097  -0.717009   0.000000 3
Si   -25.676175   323.762762     0.000000   0.120600  -0.736354   0.000000 3
Si   -28.398159   321.892296     1.920113   0.114066  -0.686706   0.000000 3
Si   -24.326832   321.832508     0.000000   0.112218  -0.746494   0.000000 3
Si   -20.260264   319.867534     0.000000   0.105611  -0.791355   0.000000 3
Si   -20.244999   323.681036     0.000000   0.120876  -0.818079   0.000000 3
Si   -22.969157   321.812878     1.920113   0.112168  -0.766125   0.000000 3
Si   -18.894374   321.755646     0.000000   0.113776  -0.823356   0.000000 3
Si   -14.824381   319.798848     0.000000   0.110594  -0.860041   0.000000 3
Si   -14.808878   323.604936     0.000000   0.126097  -0.894179   0.000000 3
Si   -17.535522   321.737311     1.920113   0.114903  -0.841691   0.000000 3
Si   -13.457220   321.685357     0.000000   0.120030  -0.893645   0.000000 3
Si    -9.384211   319.739364     0.000000   0.119864  -0.919525   0.000000 3
Si    -9.368004   323.538470     0.000000   0.136071  -0.960645   0.000000 3
Si   -12.097222   321.669257     1.920113   0.122303  -0.909745   0.000000 3
Si    -8.015662   321.625455     0.000000   0.130688  -0.953547   0.000000 3
Si    -3.940368   319.692720     0.000000   0.132807  -0.966169   0.000000 3
Si    -3.923018   323.485786     0.000000   0.150157  -1.013329   0.000000 3
Si    -6.654660   321.612560     1.920113   0.133965  -0.966443   0.000000 3
Si    -2.570445   321.579836     0.000000   0.145005  -0.999166   0.000000 3
Si    -1.208706   321.571115     1.920113   0.149019  -1.007887   0.000000 3
Si   -54.172527   316.470377     1.920113   0.136473  -0.348286   0.000000 3
Si   -54.154208   320.314710     1.920113   0.154792  -0.344179   0.000000 3
Si   -55.518208   318.406570     1.920113   0.148517  -0.332206   0.000000 3
Si   -51.454497   318.362879     0.000000   0.139053  -0.375897   0.000000 3
Si   -48.753722   316.411248     1.920113   0.124378  -0.407415   0.000000 3
Si   -48.736316   320.253117     1.920113   0.141784  -0.405773   0.000000 3
Si   -50.099908   318.347609     1.920113   0.135917  -0.391167   0.000000 3
Si   -46.035909   318.299783     0.000000   0.126741  -0.438993   0.000000 3
Si   -43.334138   316.347289     1.920113   0.113062  -0.471374   0.000000 3
Si   -43.317811   320.185725     1.920113   0.129389  -0.473164   0.000000 3
Si   -44.681119   318.283205     1.920113   0.123806  -0.455571   0.000000 3
Si   -40.616173   318.231782     0.000000   0.115577  -0.506994   0.000000 3
Si   -37.912927   316.279433     1.920113   0.103373  -0.539230   0.000000 3
Si   -37.897716   320.113435     1.920113   0.118584  -0.545454   0.000000 3
Si   -39.260950   318.214143     1.920113   0.113075  -0.524633   0.000000 3
Si   -35.194356   318.160079     0.000000   0.106494  -0.578697   0.000000 3
Si   -32.489238   316.209142     1.920113   0.096162  -0.609521   0.000000 3
Si   -32.475027   320.037783     1.920113   0.110373  -0.621106   0.000000 3
Si   -33.838471   318.141772     1.920113   0.104654  -0.597004   0.000000 3
Si   -29.769574   318.086473     0.000000   0.100376  -0.652303   0.000000 3
Si   -27.062320   316.138415     1.920113   0.092180  -0.680248   0.000000 3
Si   -27.048850   319.960958     1.920113   0.105650  -0.697932   0.000000 3
Si   -28.412825   318.068040     1.920113   0.099400  -0.670736   0.000000 3
Si   -24.341104   318.013330     0.000000   0.097946  -0.725446   0.000000 3
Si   -21.631632   316.069726     1.920113   0.091968  -0.748937   0.000000 3
Si   -21.618535   319.885725     1.920113   0.105065  -0.773164   0.000000 3
Si   -22.983351   317.995440     1.920113   0.097974  -0.743336   0.000000 3
Si   -18.908500   317.943488     0.000000   0.099650  -0.795289   0.000000 3
Si   -16.196922   316.005923     1.920113   0.095778  -0.812740   0.000000 3
Si   -16.183768   319.815298     1.920113   0.108932  -0.843591   0.000000 3
Si   -17.549683   317.926909     1.920113   0.100742  -0.811867   0.000000 3
Si   -13.471658   317.880119     0.000000   0.105592  -0.858658   0.000000 3
Si   -10.758285   315.950090     1.920113   0.103515  -0.868573   0.000000 3
Si   -10.744629   319.753174     1.920113   0.117171  -0.905715   0.000000 3
Si   -12.111810   317.865680     1.920113   0.107715  -0.873096   0.000000 3
Si    -8.030865   317.826580     0.000000   0.115485  -0.912196   0.000000 3
Si    -5.316204   315.905395     1.920113   0.114696  -0.913268   0.000000 3
Si    -5.301622   319.702979     1.920113   0.129278  -0.955910   0.000000 3
Si    -6.670122   317.815131     1.920113   0.118503  -0.923645   0.000000 3
Si    -2.586830   317.786260     0.000000   0.128620  -0.952516   0.000000 3
Si     0.128407   315.874924     1.920113   0.128407  -0.943739   0.000000 3
Si     0.144283   319.668317     1.920113   0.144283  -0.990572   0.000000 3
Si    -1.225443   317.778631     1.920113   0.132282  -0.960145   0.000000 3
Si   -52.756453   327.992247     0.000000   0.194822  -0.347095   0.000000 3
Si   -52.730755   331.841103     0.000000   0.220520  -0.338464   0.000000 3
Si   -55.452134   329.947865     1.920113   0.214591  -0.311590   0.000000 3
Si   -51.389986   329.899893     0.000000   0.203564  -0.359562   0.000000 3
Si   -47.340306   327.923918     0.000000   0.180069  -0.415423   0.000000 3
Si   -47.315374   331.770373     0.000000   0.205001  -0.409195   0.000000 3
Si   -50.036045   329.882785     1.920113   0.199780  -0.376670   0.000000 3
Si   -45.974301   329.828091     0.000000   0.188349  -0.431364   0.000000 3
Si   -41.923755   327.847475     0.000000   0.165720  -0.491867   0.000000 3
Si   -41.899933   331.689969     0.000000   0.189542  -0.489599   0.000000 3
Si   -44.620344   329.808748     1.920113   0.184581  -0.450707   0.000000 3
Si   -40.558028   329.747550     0.000000   0.173722  -0.511905   0.000000 3
Si   -36.505449   327.763853     0.000000   0.153126  -0.575489   0.000000 3
Si   -36.482846   331.600678     0.000000   0.175729  -0.578890   0.000000 3
Si   -39.203693   329.726157     1.920113   0.170332  -0.533298   0.000000 3
Si   -35.139658   329.659397     0.000000   0.161192  -0.600058   0.000000 3
Si   -31.083983   327.674953     0.000000   0.143692  -0.664389   0.000000 3
Si   -31.062415   331.504492     0.000000   0.165260  -0.675076   0.000000 3
Si   -33.784557   329.636406     1.920113   0.158568  -0.623049   0.000000 3
Si   -29.717673   329.565865     0.000000   0.152277  -0.693589   0.000000 3
Si   -25.658141   327.583662     0.000000   0.138634  -0.755680   0.000000 3
Si   -25.637160   331.404655     0.000000   0.159615  -0.774913   0.000000 3
Si   -28.361457   329.542009     1.920113   0.150768  -0.717446   0.000000 3
Si   -24.290831   329.470262     0.000000   0.148219  -0.789192   0.000000 3
Si   -20.227121   327.493680     0.000000   0.138754  -0.845662   0.000000 3
Si   -20.206141   331.305415     0.000000   0.159734  -0.874153   0.000000 3
Si   -22.933263   329.446509     1.920113   0.148062  -0.812946   0.000000 3
Si   -18.858406   329.376719     0.000000   0.149744  -0.882736   0.000000 3
Si   -14.790641   327.409238     0.000000   0.144334  -0.930103   0.000000 3
Si   -14.769095   331.211604     0.000000   0.165880  -0.967964   0.000000 3
Si   -17.499399   329.354189     1.920113   0.151026  -0.905266   0.000000 3
Si   -13.420264   329.289839     0.000000   0.156986  -0.969615   0.000000 3
Si    -9.348929   327.334850     0.000000   0.155146  -1.004492   0.000000 3
Si    -9.326347   331.128268     0.000000   0.177728  -1.051300   0.000000 3
Si   -12.059871   329.269723     1.920113   0.159654  -0.989732   0.000000 3
Si    -7.976791   329.214440     0.000000   0.169559  -1.045015   0.000000 3
Si    -3.902664   327.275191     0.000000   0.170511  -1.064151   0.000000 3
Si    -3.878639   331.060586     0.000000   0.194536  -1.118981   0.000000 3
Si    -6.615175   329.197963     1.920113   0.173450  -1.061492   0.000000 3
Si    -2.528797   329.155502     0.000000   0.186653  -1.103953   0.000000 3
Si    -1.166232   329.143946     1.920113   0.191493  -1.115509   0.000000 3
Si   -54.133634   324.160551     1.920113   0.175366  -0.338564   0.000000 3
Si   -54.110564   328.008032     1.920113   0.198436  -0.331310   0.000000 3
Si   -55.476662   326.099162     1.920113   0.190063  -0.320066   0.000000 3
Si   -51.414083   326.052471     0.000000   0.179467  -0.366757   0.000000 3
Si   -48.716613   324.096563     1.920113   0.161487  -0.402552   0.000000 3
Si   -48.694332   327.941779     1.920113   0.183768  -0.397563   0.000000 3
Si   -50.059947   326.035944     1.920113   0.175878  -0.383284   0.000000 3
Si   -45.997482   325.983508     0.000000   0.165168  -0.435720   0.000000 3
Si   -43.299200   324.025656     1.920113   0.148000  -0.473459   0.000000 3
Si   -43.278002   327.867311     1.920113   0.169198  -0.472030   0.000000 3
Si   -44.643249   325.965102     1.920113   0.161676  -0.454126   0.000000 3
Si   -40.580041   325.907294     0.000000   0.151709  -0.511934   0.000000 3
Si   -37.880268   323.948663     1.920113   0.136032  -0.550453   0.000000 3
Si   -37.860268   327.785344     1.920113   0.156032  -0.553998   0.000000 3
Si   -39.225401   325.887228     1.920113   0.148624  -0.532001   0.000000 3
Si   -35.160483   325.825021     0.000000   0.140367  -0.594207   0.000000 3
Si   -32.458630   323.867185     1.920113   0.126770  -0.631930   0.000000 3
Si   -32.439718   327.697529     1.920113   0.145682  -0.641812   0.000000 3
Si   -33.805112   325.803730     1.920113   0.138013  -0.615499   0.000000 3
Si   -29.737549   325.738768     0.000000   0.132401  -0.680460   0.000000 3
Si   -27.033217   323.783626     1.920113   0.121283  -0.715489   0.000000 3
Si   -27.015064   327.606518     1.920113   0.139436  -0.732823   0.000000 3
Si   -28.381160   325.716910     1.920113   0.131065  -0.702318   0.000000 3
Si   -24.310209   325.651470     0.000000   0.128841  -0.767758   0.000000 3
Si   -21.603254   323.701092     1.920113   0.120346  -0.798023   0.000000 3
Si   -21.585386   327.515828     1.920113   0.138214  -0.823514   0.000000 3
Si   -22.952601   325.629894     1.920113   0.128724  -0.789334   0.000000 3
Si   -18.877832   325.566744     0.000000   0.130318  -0.852485   0.000000 3
Si   -16.168369   323.623218     1.920113   0.124331  -0.875897   0.000000 3
Si   -16.150268   327.429586     1.920113   0.142432  -0.909756   0.000000 3
Si   -17.518923   325.546433     1.920113   0.131502  -0.872795   0.000000 3
Si   -13.440266   325.488650     0.000000   0.136984  -0.930579   0.000000 3
Si   -10.728641   323.553958     1.920113   0.133159  -0.945157   0.000000 3
Si   -10.709817   327.352252     1.920113   0.151983  -0.987090   0.000000 3
Si   -12.080092   325.470664     1.920113   0.139433  -0.948565   0.000000 3
Si    -7.997830   325.421492     0.000000   0.148520  -0.997737   0.000000 3
Si    -5.284597   323.497436     1.920113   0.146303  -1.001679   0.000000 3
Si    -5.264602   327.288464     1.920113   0.166298  -1.050878   0.000000 3
Si    -6.636540   325.406930     1.920113   0.152085  -1.012299   0.000000 3
Si    -2.551300   325.369710     0.000000   0.164150  -1.049519   0.000000 3
Si     0.162746   323.457828     1.920113   0.162746  -1.041287   0.000000 3
Si     0.184337   327.243010     1.920113   0.184337  -1.096332   0.000000 3
Si    -1.189168   325.359694     1.920113   0.168557  -1.059535   0.000000 3
Si   -52.701988   335.691933     0.000000   0.249287  -0.327861   0.000000 3
Si   -52.669866   339.544859     0.000000   0.281409  -0.315162   0.000000 3
Si   -55.394381   337.650560     1.920113   0.272344  -0.289347   0.000000 3
Si   -51.332565   337.600825     0.000000   0.260985  -0.339082   0.000000 3
Si   -47.287200   335.619075     0.000000   0.233175  -0.400719   0.000000 3
Si   -47.255411   339.470288     0.000000   0.264964  -0.389732   0.000000 3
Si   -49.978882   337.582771     1.920113   0.256943  -0.357136   0.000000 3
Si   -45.918314   337.523964     0.000000   0.244336  -0.415943   0.000000 3
Si   -41.872813   335.534725     0.000000   0.216662  -0.485069   0.000000 3
Si   -41.841980   339.382116     0.000000   0.247495  -0.477905   0.000000 3
Si   -44.564863   337.502785     1.920113   0.240062  -0.437122   0.000000 3
Si   -40.504296   337.434547     0.000000   0.227454  -0.505360   0.000000 3
Si   -36.456963   335.439420     0.000000   0.201612  -0.580374   0.000000 3
Si   -36.427374   339.280457     0.000000   0.231201  -0.579563   0.000000 3
Si   -39.150586   337.410280     1.920113   0.223439  -0.529627   0.000000 3
Si   -35.088370   337.333314     0.000000   0.212480  -0.606593   0.000000 3
Si   -31.037560   335.335215     0.000000   0.190115  -0.684579   0.000000 3
Si   -31.008985   339.167378     0.000000   0.218690  -0.692643   0.000000 3
Si   -33.733813   337.306416     1.920113   0.209312  -0.633492   0.000000 3
Si   -29.668212   337.222816     0.000000   0.201738  -0.717091   0.000000 3
Si   -25.612771   335.225802     0.000000   0.184004  -0.793993   0.000000 3
Si   -25.584477   339.047144     0.000000   0.212298  -0.812876   0.000000 3
Si   -28.312271   337.194224     1.920113   0.199954  -0.745684   0.000000 3
Si   -24.241929   337.107442     0.000000   0.197121  -0.832465   0.000000 3
Si   -20.181493   335.116151     0.000000   0.184382  -0.903643   0.000000 3
Si   -20.152532   338.925720     0.000000   0.213343  -0.934301   0.000000 3
Si   -22.884267   337.078485     1.920113   0.197058  -0.861423   0.000000 3
Si   -18.808591   336.992855     0.000000   0.199559  -0.947052   0.000000 3
Si   -14.743546   335.011838     0.000000   0.191429  -1.007956   0.000000 3
Si   -14.713160   338.809666     0.000000   0.221815  -1.050355   0.000000 3
Si   -17.449153   336.965042     1.920113   0.201272  -0.974865   0.000000 3
Si   -13.368346   336.885100     0.000000   0.208904  -1.054808   0.000000 3
Si    -9.299466   334.918469     0.000000   0.204609  -1.101326   0.000000 3
Si    -9.267300   338.705165     0.000000   0.236775  -1.154855   0.000000 3
Si   -12.007295   336.859917     1.920113   0.212230  -1.079990   0.000000 3
Si    -7.922013   336.789992     0.000000   0.224337  -1.149915   0.000000 3
Si    -3.850112   334.841624     0.000000   0.223063  -1.178170   0.000000 3
Si    -3.816043   338.617983     0.000000   0.257132  -1.242037   0.000000 3
Si    -6.559592   336.768857     1.920113   0.229033  -1.171050   0.000000 3
Si    -2.470548   336.713294     0.000000   0.244902  -1.226613   0.000000 3
Si    -1.106989   336.697734     1.920113   0.250736  -1.242173   0.000000 3
Si   -54.084746   331.857277     1.920113   0.224254  -0.322291   0.000000 3
Si   -54.055920   335.708402     1.920113   0.253080  -0.311392   0.000000 3
Si   -55.424786   333.798307     1.920113   0.241939  -0.301374   0.000000 3
Si   -51.362915   333.749289     0.000000   0.230635  -0.350392   0.000000 3
Si   -48.669169   331.788971     1.920113   0.208931  -0.390597   0.000000 3
Si   -48.640796   335.638360     1.920113   0.237304  -0.381434   0.000000 3
Si   -50.009132   333.731662     1.920113   0.226693  -0.368019   0.000000 3
Si   -45.948035   333.674815     0.000000   0.214615  -0.424866   0.000000 3
Si   -43.253881   331.710953     1.920113   0.193319  -0.468615   0.000000 3
Si   -43.226468   335.556885     1.920113   0.220732  -0.462909   0.000000 3
Si   -44.594343   333.654541     1.920113   0.210582  -0.445140   0.000000 3
Si   -40.532913   333.589850     0.000000   0.198837  -0.509831   0.000000 3
Si   -37.837366   331.623746     1.920113   0.178934  -0.555822   0.000000 3
Si   -37.811177   335.464188     1.920113   0.205123  -0.555606   0.000000 3
Si   -39.178889   333.567056     1.920113   0.195136  -0.532625   0.000000 3
Si   -35.115756   333.495386     0.000000   0.185094  -0.604295   0.000000 3
Si   -32.417925   331.529026     1.920113   0.167475  -0.650541   0.000000 3
Si   -32.392853   335.361923     1.920113   0.192547  -0.657871   0.000000 3
Si   -33.760927   333.470534     1.920113   0.182198  -0.629147   0.000000 3
Si   -29.694704   333.393817     0.000000   0.175246  -0.705864   0.000000 3
Si   -26.993989   331.429738     1.920113   0.160511  -0.749830   0.000000 3
Si   -26.969549   335.253388     1.920113   0.184951  -0.766406   0.000000 3
Si   -28.338641   333.367730     1.920113   0.173584  -0.731951   0.000000 3
Si   -24.268240   333.288918     0.000000   0.170810  -0.810763   0.000000 3
Si   -21.564462   331.329911     1.920113   0.159138  -0.849657   0.000000 3
Si   -21.539946   335.143285     1.920113   0.183654  -0.876509   0.000000 3
Si   -22.910664   333.262720     1.920113   0.170661  -0.836961   0.000000 3
Si   -18.835540   333.185476     0.000000   0.172610  -0.914205   0.000000 3
Si   -16.128912   331.234274     1.920113   0.163788  -0.945294   0.000000 3
Si   -16.103638   335.037108     1.920113   0.189062  -0.982686   0.000000 3
Si   -17.476371   333.160455     1.920113   0.174054  -0.939226   0.000000 3
Si   -13.396557   333.088737     0.000000   0.180693  -1.010944   0.000000 3
Si   -10.687534   331.147840     1.920113   0.174266  -1.031728   0.000000 3
Si   -10.661017   334.940483     1.920113   0.200783  -1.079311   0.000000 3
Si   -12.035883   333.066225     1.920113   0.183642  -1.033456   0.000000 3
Si    -7.951820   333.004033     0.000000   0.194530  -1.095648   0.000000 3
Si    -5.240977   331.075747     1.920113   0.189923  -1.103821   0.000000 3
Si    -5.212893   334.858969     1.920113   0.218007  -1.160825   0.000000 3
Si    -6.589832   332.985369     1.920113   0.198793  -1.114312   0.000000 3
Si    -2.502190   332.936822     0.000000   0.213260  -1.162859   0.000000 3
Si     0.209727   331.023381     1.920113   0.209727  -1.156187   0.000000 3
Si     0.239749   334.798449     1.920113   0.239749  -1.221345   0.000000 3
Si    -1.139149   332.923435     1.920113   0.218576  -1.176246   0.000000 3
Si   -52.634113   343.399969     0.000000   0.317162  -0.300277   0.000000 3
Si   -52.594486   347.257286     0.000000   0.356789  -0.283187   0.000000 3
Si   -55.323569   345.360569     1.920113   0.343156  -0.259790   0.000000 3
Si   -51.260786   345.310878     0.000000   0.332764  -0.309482   0.000000 3
Si   -47.219603   343.324294     0.000000   0.300772  -0.375952   0.000000 3
Si   -47.179344   347.181371     0.000000   0.341031  -0.359102   0.000000 3
Si   -49.907007   345.292426     1.920113   0.328818  -0.327933   0.000000 3
Si   -45.846833   345.230815     0.000000   0.315817  -0.389544   0.000000 3
Si   -41.806960   343.232584     0.000000   0.282515  -0.467662   0.000000 3
Si   -41.767213   347.086667     0.000000   0.322262  -0.453806   0.000000 3
Si   -44.493729   345.208074     1.920113   0.311196  -0.412286   0.000000 3
Si   -40.434707   345.132923     0.000000   0.297043  -0.487437   0.000000 3
Si   -36.393611   343.124273     0.000000   0.264964  -0.575974   0.000000 3
Si   -36.355139   346.971501     0.000000   0.303436  -0.568972   0.000000 3
Si   -39.081626   345.105548     1.920113   0.292399  -0.514812   0.000000 3
Si   -35.021331   345.016733     0.000000   0.279519  -0.603627   0.000000 3
Si   -30.976238   343.001303     0.000000   0.251437  -0.698943   0.000000 3
Si   -30.938849   346.837423     0.000000   0.288826  -0.703050   0.000000 3
Si   -33.667341   344.985057     1.920113   0.275784  -0.635302   0.000000 3
Si   -29.602849   344.884930     0.000000   0.267101  -0.735430   0.000000 3
Si   -25.551762   342.868690     0.000000   0.245013  -0.831557   0.000000 3
Si   -25.514116   346.690403     0.000000   0.282659  -0.850070   0.000000 3
Si   -28.247008   344.850211     1.920113   0.265217  -0.770149   0.000000 3
Si   -24.175963   344.743849     0.000000   0.263087  -0.876511   0.000000 3
Si   -20.118546   342.733829     0.000000   0.247329  -0.966417   0.000000 3
Si   -20.078773   346.539988     0.000000   0.287102  -1.000484   0.000000 3
Si   -22.817724   344.708136     1.920113   0.263601  -0.912224   0.000000 3
Si   -18.739418   344.602240     0.000000   0.268732  -1.018120   0.000000 3
Si   -14.676948   342.604676     0.000000   0.258027  -1.095571   0.000000 3
Si   -14.633766   346.396240     0.000000   0.301209  -1.144233   0.000000 3
Si   -17.378868   344.567803     1.920113   0.271557  -1.052557   0.000000 3
Si   -13.294374   344.468715     0.000000   0.282876  -1.151645   0.000000 3
Si    -9.228635   342.488026     0.000000   0.275440  -1.212221   0.000000 3
Si    -9.182009   346.266642     0.000000   0.322066  -1.273831   0.000000 3
Si   -11.932060   344.437415     1.920113   0.287465  -1.182945   0.000000 3
Si    -7.843144   344.349818     0.000000   0.303206  -1.270541   0.000000 3
Si    -3.775144   342.389406     0.000000   0.298031  -1.310841   0.000000 3
Si    -3.725848   346.155764     0.000000   0.347327  -1.384709   0.000000 3
Si    -6.479588   344.322962     1.920113   0.309037  -1.297398   0.000000 3
Si    -2.387268   344.250518     0.000000   0.328182  -1.369842   0.000000 3
Si    -1.022586   344.229415     1.920113   0.335139  -1.390944   0.000000 3
Si   -54.023828   339.561495     1.920113   0.285172  -0.298525   0.000000 3
Si   -53.988230   343.416601     1.920113   0.320770  -0.283645   0.000000 3
Si   -55.360701   341.504659     1.920113   0.306024  -0.275475   0.000000 3
Si   -51.298624   341.454651     0.000000   0.294926  -0.325482   0.000000 3
Si   -48.608858   339.490177     1.920113   0.269242  -0.369843   0.000000 3
Si   -48.572979   343.344655     1.920113   0.305121  -0.355592   0.000000 3
Si   -49.944956   341.436304     1.920113   0.290869  -0.343830   0.000000 3
Si   -45.884729   341.375851     0.000000   0.277921  -0.404282   0.000000 3
Si   -43.195351   339.405457     1.920113   0.251849  -0.454563   0.000000 3
Si   -43.160069   343.257082     1.920113   0.287131  -0.443165   0.000000 3
Si   -44.531483   341.353832     1.920113   0.273442  -0.426302   0.000000 3
Si   -40.471731   341.282064     0.000000   0.260019  -0.498070   0.000000 3
Si   -37.781277   339.307060     1.920113   0.235023  -0.552960   0.000000 3
Si   -37.747190   343.152852     1.920113   0.269110  -0.547395   0.000000 3
Si   -39.118335   341.256262     1.920113   0.255690  -0.523872   0.000000 3
Si   -35.057057   341.173586     0.000000   0.243793  -0.606547   0.000000 3
Si   -32.364077   339.196520     1.920113   0.221323  -0.663501   0.000000 3
Si   -32.331143   343.033196     1.920113   0.254257  -0.667051   0.000000 3
Si   -33.702777   341.144426     1.920113   0.240348  -0.635707   0.000000 3
Si   -29.637747   341.053092     0.000000   0.232203  -0.727042   0.000000 3
Si   -26.941272   339.077567     1.920113   0.213228  -0.782453   0.000000 3
Si   -26.908670   342.902369     1.920113   0.245830  -0.797878   0.000000 3
Si   -28.281883   341.021653     1.920113   0.230342  -0.758480   0.000000 3
Si   -24.211355   340.925791     0.000000   0.227695  -0.854342   0.000000 3
Si   -21.511236   338.955828     1.920113   0.212364  -0.904193   0.000000 3
Si   -21.477681   342.767310     1.920113   0.245919  -0.932937   0.000000 3
Si   -22.853489   340.893695     1.920113   0.227836  -0.886438   0.000000 3
Si   -18.776823   340.798589     0.000000   0.231327  -0.981544   0.000000 3
Si   -16.073657   338.837827     1.920113   0.219043  -1.022194   0.000000 3
Si   -16.038052   342.636029     1.920113   0.254648  -1.064217   0.000000 3
Si   -17.416952   340.767652     1.920113   0.233473  -1.012481   0.000000 3
Si   -13.334667   340.678589     0.000000   0.242583  -1.101544   0.000000 3
Si   -10.629309   338.729892     1.920113   0.232491  -1.130128   0.000000 3
Si   -10.591244   342.515704     1.920113   0.270556  -1.184542   0.000000 3
Si   -11.973094   340.650467     1.920113   0.246431  -1.129667   0.000000 3
Si    -7.886247   340.572025     0.000000   0.260103  -1.208108   0.000000 3
Si    -5.179315   338.637830     1.920113   0.251585  -1.222190   0.000000 3
Si    -5.138957   342.412072     1.920113   0.291943  -1.288175   0.000000 3
Si    -6.523313   340.548143     1.920113   0.265312  -1.231991   0.000000 3
Si    -2.432713   340.484594     0.000000   0.282737  -1.295540   0.000000 3
Si     0.275434   338.567739     1.920113   0.275434  -1.292281   0.000000 3
Si     0.318043   342.330866     1.920113   0.318043  -1.369381   0.000000 3
Si    -1.068602   340.466472     1.920113   0.289123  -1.313661   0.000000 3
Si   -52.550815   351.116717     0.000000   0.400460  -0.263982   0.000000 3
Si   -52.503093   354.977991     0.000000   0.448182  -0.242934   0.000000 3
Si   -55.238712   353.077140     1.920113   0.428013  -0.223672   0.000000 3
Si   -51.172410   353.030548     0.000000   0.421140  -0.270264   0.000000 3
Si   -47.134184   351.041757     0.000000   0.386191  -0.338942   0.000000 3
Si   -47.083698   354.905580     0.000000   0.436677  -0.315345   0.000000 3
Si   -49.817765   353.012755     1.920113   0.418060  -0.288057   0.000000 3
Si   -45.756106   352.951335     0.000000   0.406544  -0.349477   0.000000 3
Si   -41.722096   350.945000     0.000000   0.367379  -0.435699   0.000000 3
Si   -41.670828   354.808310     0.000000   0.418647  -0.412615   0.000000 3
Si   -44.402905   352.927878     1.920113   0.402020  -0.372934   0.000000 3
Si   -40.344742   352.847414     0.000000   0.387008  -0.453398   0.000000 3
Si   -36.311318   350.823005     0.000000   0.347257  -0.557694   0.000000 3
Si   -36.261307   354.679984     0.000000   0.397268  -0.540941   0.000000 3
Si   -38.992271   352.817023     1.920113   0.381754  -0.483789   0.000000 3
Si   -34.934278   352.714837     0.000000   0.366572  -0.585975   0.000000 3
Si   -30.896319   350.676364     0.000000   0.331356  -0.704335   0.000000 3
Si   -30.848068   354.519104     0.000000   0.379607  -0.701822   0.000000 3
Si   -33.581037   352.677211     1.920113   0.362088  -0.623601   0.000000 3
Si   -29.517872   352.555084     0.000000   0.352078  -0.745728   0.000000 3
Si   -25.471065   350.512203     0.000000   0.325710  -0.868496   0.000000 3
Si   -25.422191   354.333984     0.000000   0.374584  -0.886941   0.000000 3
Si   -28.161966   352.511877     1.920113   0.350259  -0.788936   0.000000 3
Si   -24.088618   352.378072     0.000000   0.350432  -0.922740   0.000000 3
Si   -20.032436   350.343400     0.000000   0.333439  -1.037299   0.000000 3
Si   -19.978768   354.142796     0.000000   0.387107  -1.078129   0.000000 3
Si   -22.728869   352.332983     1.920113   0.352456  -0.967829   0.000000 3
Si   -18.644151   352.199996     0.000000   0.363999  -1.100816   0.000000 3
Si   -14.582318   350.183381     0.000000   0.352657  -1.197318   0.000000 3
Si   -14.521174   353.964592     0.000000   0.413801  -1.256333   0.000000 3
Si   -17.281019   352.157184     1.920113   0.369406  -1.143628   0.000000 3
Si   -13.188446   352.035527     0.000000   0.388804  -1.265285   0.000000 3
Si    -9.125705   350.040484     0.000000   0.378370  -1.340215   0.000000 3
Si    -9.057804   353.808845     0.000000   0.446271  -1.412081   0.000000 3
Si   -11.823566   351.997509     1.920113   0.395959  -1.303303   0.000000 3
Si    -7.728090   351.891269     0.000000   0.418260  -1.409543   0.000000 3
Si    -3.666320   349.917151     0.000000   0.406855  -1.463548   0.000000 3
Si    -3.594553   353.674007     0.000000   0.478622  -1.546918   0.000000 3
Si    -6.362812   351.858367     1.920113   0.425813  -1.442445   0.000000 3
Si    -2.266560   351.766700     0.000000   0.448890  -1.534112   0.000000 3
Si    -0.900806   351.738483     1.920113   0.456919  -1.562329   0.000000 3
Si   -53.948935   347.273688     1.920113   0.360065  -0.266785   0.000000 3
Si   -53.905842   351.132604     1.920113   0.403158  -0.248095   0.000000 3
Si   -55.282888   349.218157     1.920113   0.383837  -0.242428   0.000000 3
Si   -51.218777   349.169543     0.000000   0.374773  -0.291043   0.000000 3
Si   -48.532768   347.202001     1.920113   0.345332  -0.338472   0.000000 3
Si   -48.487843   351.062362     1.920113   0.390257  -0.318337   0.000000 3
Si   -49.864701   349.151247     1.920113   0.371124  -0.309338   0.000000 3
Si   -45.804134   349.089206     0.000000   0.358516  -0.371380   0.000000 3
Si   -43.120097   347.112238     1.920113   0.327103  -0.428235   0.000000 3
Si   -43.074825   350.971466     1.920113   0.372375  -0.409233   0.000000 3
Si   -44.451069   349.065944     1.920113   0.353856  -0.394642   0.000000 3
Si   -40.392624   348.987773     0.000000   0.339126  -0.472813   0.000000 3
Si   -37.708372   347.002197     1.920113   0.307928  -0.538276   0.000000 3
Si   -37.664161   350.855935     1.920113   0.352139  -0.524764   0.000000 3
Si   -39.039855   348.958836     1.920113   0.334170  -0.501750   0.000000 3
Si   -34.980634   348.863475     0.000000   0.320216  -0.597111   0.000000 3
Si   -32.293568   346.872465     1.920113   0.291832  -0.668008   0.000000 3
Si   -32.250816   350.715065     1.920113   0.334584  -0.665634   0.000000 3
Si   -33.626974   348.828990     1.920113   0.316151  -0.631596   0.000000 3
Si   -29.563051   348.718725     0.000000   0.306899  -0.741861   0.000000 3
Si   -26.871261   346.727887     1.920113   0.283239  -0.812586   0.000000 3
Si   -26.828592   350.554243     1.920113   0.325908  -0.826456   0.000000 3
Si   -28.207185   348.680154     1.920113   0.305040  -0.780432   0.000000 3
Si   -24.135214   348.561394     0.000000   0.303836  -0.899192   0.000000 3
Si   -21.438602   346.577334     1.920113   0.284998  -0.963139   0.000000 3
Si   -21.393327   350.385248     1.920113   0.330273  -0.995451   0.000000 3
Si   -22.776370   348.521433     1.920113   0.304955  -0.939153   0.000000 3
Si   -18.695498   348.403090     0.000000   0.312652  -1.057496   0.000000 3
Si   -15.995775   346.431083     1.920113   0.296925  -1.109390   0.000000 3
Si   -15.945665   350.221989     1.920113   0.347035  -1.158710   0.000000 3
Si   -17.333911   348.364722     1.920113   0.316514  -1.095864   0.000000 3
Si   -13.246136   348.254737     0.000000   0.331114  -1.205849   0.000000 3
Si   -10.545420   346.297434     1.920113   0.316380  -1.243039   0.000000 3
Si   -10.490202   350.074399     1.920113   0.371598  -1.306300   0.000000 3
Si   -11.882762   348.220093     1.920113   0.336763  -1.240493   0.000000 3
Si    -7.791057   348.123029     0.000000   0.355293  -1.337557   0.000000 3
Si    -5.090257   346.181515     1.920113   0.340643  -1.358958   0.000000 3
Si    -5.031378   349.946121     1.920113   0.399522  -1.434578   0.000000 3
Si    -6.426733   348.093090     1.920113   0.361892  -1.367496   0.000000 3
Si    -2.332521   348.011088     0.000000   0.382929  -1.449498   0.000000 3
Si     0.369084   346.087644     1.920113   0.369084  -1.452829   0.000000 3
Si     0.430288   349.838275     1.920113   0.430288  -1.542424   0.000000 3
Si    -0.967276   347.986590     1.920113   0.390449  -1.473996   0.000000 3
Si   -52.451610   358.840567     0.000000   0.499665  -0.220585   0.000000 3
Si   -52.397190   362.703543     0.000000   0.554085  -0.197834   0.000000 3
Si   -55.141536   360.797070     1.920113   0.525189  -0.184195   0.000000 3
Si   -51.067009   360.757953     0.000000   0.526541  -0.223311   0.000000 3
Si   -47.027594   358.772718     0.000000   0.492781  -0.288433   0.000000 3
Si   -46.965959   362.642586     0.000000   0.554416  -0.258792   0.000000 3
Si   -49.709884   360.742564     1.920113   0.525941  -0.238701   0.000000 3
Si   -45.642171   360.687224     0.000000   0.520479  -0.294040   0.000000 3
Si   -41.612470   358.677333     0.000000   0.477005  -0.383819   0.000000 3
Si   -41.545987   362.552582     0.000000   0.543488  -0.348796   0.000000 3
Si   -44.287566   360.665112     1.920113   0.517359  -0.316152   0.000000 3
Si   -40.227578   360.584903     0.000000   0.504172  -0.396362   0.000000 3
Si   -36.203905   358.544106     0.000000   0.454670  -0.517046   0.000000 3
Si   -36.137285   362.417607     0.000000   0.521290  -0.483770   0.000000 3
Si   -38.875352   360.552827     1.920113   0.498673  -0.428438   0.000000 3
Si   -34.820303   360.438032     0.000000   0.480547  -0.543232   0.000000 3
Si   -30.793298   358.367254     0.000000   0.434377  -0.693898   0.000000 3
Si   -30.730657   362.223572     0.000000   0.497018  -0.677806   0.000000 3
Si   -33.468491   360.393251     1.920113   0.474634  -0.588013   0.000000 3
Si   -29.408888   360.240281     0.000000   0.461062  -0.740983   0.000000 3
Si   -25.367120   358.155677     0.000000   0.429655  -0.905474   0.000000 3
Si   -25.305408   361.977399     0.000000   0.491367  -0.923979   0.000000 3
Si   -28.053315   360.184025     1.920113   0.458910  -0.797240   0.000000 3
Si   -23.976255   360.006529     0.000000   0.462795  -0.974736   0.000000 3
Si   -19.916999   357.936182     0.000000   0.448876  -1.124969   0.000000 3
Si   -19.846200   361.720391     0.000000   0.519675  -1.180987   0.000000 3
Si   -22.613494   359.946634     1.920113   0.467831  -1.034630   0.000000 3
Si   -18.515310   359.773745     0.000000   0.492840  -1.207519   0.000000 3
Si   -14.448770   357.737595     0.000000   0.486205  -1.323556   0.000000 3
Si   -14.363333   361.499080     0.000000   0.571642  -1.402298   0.000000 3
Si   -17.146769   359.720012     1.920113   0.503656  -1.261253   0.000000 3
Si   -13.037987   359.573874     0.000000   0.539263  -1.407391   0.000000 3
Si    -8.976355   357.570803     0.000000   0.527720  -1.490348   0.000000 3
Si    -8.879729   361.325304     0.000000   0.624346  -1.576074   0.000000 3
Si   -11.668289   359.530145     1.920113   0.551236  -1.451120   0.000000 3
Si    -7.561668   359.411073     0.000000   0.584682  -1.570191   0.000000 3
Si    -3.508664   357.427295     0.000000   0.564511  -1.633856   0.000000 3
Si    -3.407563   361.178697     0.000000   0.665612  -1.722680   0.000000 3
Si    -6.193916   359.374340     1.920113   0.594709  -1.606925   0.000000 3
Si    -2.093648   359.267847     0.000000   0.621802  -1.713418   0.000000 3
Si    -0.727395   359.232411     1.920113   0.630330  -1.748853   0.000000 3
Si   -53.859035   354.993018     1.920113   0.449965  -0.227908   0.000000 3
Si   -53.808915   358.854341     1.920113   0.500085  -0.206810   0.000000 3
Si   -55.191352   356.937026     1.920113   0.475373  -0.204012   0.000000 3
Si   -51.121692   356.893571     0.000000   0.471858  -0.247467   0.000000 3
Si   -48.437887   354.925740     1.920113   0.440213  -0.295185   0.000000 3
Si   -48.382771   358.791867     1.920113   0.495329  -0.269284   0.000000 3
Si   -49.766082   356.876720     1.920113   0.469743  -0.264318   0.000000 3
Si   -45.702238   356.817386     0.000000   0.460412  -0.323652   0.000000 3
Si   -43.023543   354.835337     1.920113   0.423657  -0.385589   0.000000 3
Si   -42.965456   358.704336     1.920113   0.481744  -0.356815   0.000000 3
Si   -44.348597   356.794236     1.920113   0.456328  -0.346802   0.000000 3
Si   -40.290124   356.712792     0.000000   0.441626  -0.428246   0.000000 3
Si   -37.613696   354.715192     1.920113   0.402604  -0.505733   0.000000 3
Si   -37.555778   358.581443     1.920113   0.460522  -0.479708   0.000000 3
Si   -38.937882   356.681242     1.920113   0.436143  -0.459796   0.000000 3
Si   -34.881316   356.572301     0.000000   0.419534  -0.568737   0.000000 3
Si   -32.202229   354.562120     1.920113   0.383171  -0.658805   0.000000 3
Si   -32.146864   358.415410     1.920113   0.438536  -0.645741   0.000000 3
Si   -33.528660   356.531205     1.920113   0.414465  -0.609833   0.000000 3
Si   -29.466754   356.395011     0.000000   0.403196  -0.746027   0.000000 3
Si   -26.780245   354.381654     1.920113   0.374255  -0.839271   0.000000 3
Si   -26.725798   358.210583     1.920113   0.428702  -0.850568   0.000000 3
Si   -28.110882   356.346069     1.920113   0.401343  -0.794970   0.000000 3
Si   -24.035759   356.193358     0.000000   0.403291  -0.947680   0.000000 3
Si   -21.341223   354.190016     1.920113   0.382377  -1.030909   0.000000 3
Si   -21.281697   357.990022     1.920113   0.441903  -1.071129   0.000000 3
Si   -22.674730   356.141856     1.920113   0.406595  -0.999182   0.000000 3
Si   -18.584435   355.991156     0.000000   0.423715  -1.149882   0.000000 3
Si   -15.886456   354.007190     1.920113   0.406244  -1.213735   0.000000 3
Si   -15.816766   357.784291     1.920113   0.475934  -1.276861   0.000000 3
Si   -17.219063   355.943270     1.920113   0.431362  -1.197768   0.000000 3
Si   -13.119653   355.809391     0.000000   0.457597  -1.331648   0.000000 3
Si   -10.423760   353.845624     1.920113   0.438040  -1.375301   0.000000 3
Si   -10.344187   357.609754     1.920113   0.517613  -1.451397   0.000000 3
Si   -11.752689   355.768206     1.920113   0.466836  -1.372832   0.000000 3
Si    -7.652232   355.654098     0.000000   0.494118  -1.486940   0.000000 3
Si    -4.960295   353.706065     1.920113   0.470605  -1.514860   0.000000 3
Si    -4.875077   357.461850     1.920113   0.555823  -1.599301   0.000000 3
Si    -6.285792   355.618736     1.920113   0.502833  -1.522302   0.000000 3
Si    -2.187437   355.518342     0.000000   0.528013  -1.622696   0.000000 3
Si     0.503481   353.583638     1.920113   0.503481  -1.637287   0.000000 3
Si     0.590257   357.325698     1.920113   0.590257  -1.735453   0.000000 3
Si    -0.821309   355.486320     1.920113   0.536416  -1.654718   0.000000 3
Si   -52.341517   366.565627     0.000000   0.609758  -0.175977   0.000000 3
Si   -52.287500   370.425245     0.000000   0.663775  -0.156585   0.000000 3
Si   -55.040846   368.513377     1.920113   0.625879  -0.148340   0.000000 3
Si   -50.951198   368.485877     0.000000   0.642352  -0.175840   0.000000 3
Si   -46.899757   366.513857     0.000000   0.620618  -0.227747   0.000000 3
Si   -46.831678   370.384269     0.000000   0.688697  -0.197561   0.000000 3
Si   -49.588783   368.474923     1.920113   0.647042  -0.186794   0.000000 3
Si   -45.505223   368.434278     0.000000   0.657427  -0.227439   0.000000 3
Si   -41.470617   366.433834     0.000000   0.618858  -0.307770   0.000000 3
Si   -41.386993   370.319211     0.000000   0.702482  -0.262619   0.000000 3
Si   -44.145646   368.417310     1.920113   0.659279  -0.244407   0.000000 3
Si   -40.073561   368.351199     0.000000   0.658189  -0.310518   0.000000 3
Si   -36.058651   366.303182     0.000000   0.599924  -0.438422   0.000000 3
Si   -35.964236   370.203033     0.000000   0.694339  -0.378797   0.000000 3
Si   -38.718824   368.322466     1.920113   0.655201  -0.339251   0.000000 3
Si   -34.663092   368.207378     0.000000   0.637758  -0.454339   0.000000 3
Si   -30.657474   366.092899     0.000000   0.570201  -0.648705   0.000000 3
Si   -30.567981   369.983805     0.000000   0.659694  -0.598025   0.000000 3
Si   -33.313535   368.157030     1.920113   0.629590  -0.504687   0.000000 3
Si   -29.265112   367.962866     0.000000   0.604838  -0.698851   0.000000 3
Si   -25.236195   365.799778     0.000000   0.560580  -0.941826   0.000000 3
Si   -25.157297   369.624745     0.000000   0.639478  -0.957085   0.000000 3
Si   -27.912828   367.884096     1.920113   0.599397  -0.777621   0.000000 3
Si   -23.834510   367.622117     0.000000   0.604540  -1.039600   0.000000 3
Si   -19.764727   365.490187     0.000000   0.601148  -1.251417   0.000000 3
Si   -19.668564   369.236264     0.000000   0.697311  -1.345566   0.000000 3
Si   -22.466385   367.533363     1.920113   0.614940  -1.128354   0.000000 3
Si   -18.341399   367.292534     0.000000   0.666751  -1.369183   0.000000 3
Si   -14.262609   365.244573     0.000000   0.672366  -1.497031   0.000000 3
Si   -14.143438   368.969033     0.000000   0.791537  -1.612797   0.000000 3
Si   -16.962740   367.224854     1.920113   0.687685  -1.436863   0.000000 3
Si   -12.828337   367.061200     0.000000   0.748913  -1.600516   0.000000 3
Si    -8.767370   365.071577     0.000000   0.736705  -1.670027   0.000000 3
Si    -8.641347   368.810246     0.000000   0.862728  -1.771585   0.000000 3
Si   -11.452530   367.017651     1.920113   0.766995  -1.644066   0.000000 3
Si    -7.334823   366.907445     0.000000   0.811527  -1.754272   0.000000 3
Si    -3.292217   364.930811     0.000000   0.780958  -1.810792   0.000000 3
Si    -3.167652   368.687184     0.000000   0.905523  -1.894646   0.000000 3
Si    -5.965406   366.874385     1.920113   0.823219  -1.787331   0.000000 3
Si    -1.864712   366.773221     0.000000   0.850738  -1.888496   0.000000 3
Si    -0.499592   366.735646     1.920113   0.858133  -1.926071   0.000000 3
Si   -53.756414   362.715673     1.920113   0.552586  -0.185704   0.000000 3
Si   -53.703276   366.575798     1.920113   0.605724  -0.165806   0.000000 3
Si   -55.090626   364.656254     1.920113   0.576099  -0.165237   0.000000 3
Si   -51.009441   364.622583     0.000000   0.584109  -0.198908   0.000000 3
Si   -48.322812   362.660020     1.920113   0.555288  -0.241357   0.000000 3
Si   -48.259243   366.528816     1.920113   0.618857  -0.212788   0.000000 3
Si   -49.650081   364.609194     1.920113   0.585744  -0.212297   0.000000 3
Si   -45.576046   364.560102     0.000000   0.586604  -0.261389   0.000000 3
Si   -42.899823   362.578619     1.920113   0.547377  -0.322759   0.000000 3
Si   -42.826401   366.457520     1.920113   0.620799  -0.284084   0.000000 3
Si   -44.219609   364.540004     1.920113   0.585316  -0.281487   0.000000 3
Si   -40.155731   364.464475     0.000000   0.576019  -0.357016   0.000000 3
Si   -37.488683   362.456505     1.920113   0.527617  -0.444873   0.000000 3
Si   -37.410032   366.342213     1.920113   0.606268  -0.399391   0.000000 3
Si   -38.802939   364.433069     1.920113   0.571086  -0.388422   0.000000 3
Si   -34.748864   364.315092     0.000000   0.551986  -0.506399   0.000000 3
Si   -32.083128   362.277829     1.920113   0.502272  -0.623548   0.000000 3
Si   -32.008017   366.154107     1.920113   0.577383  -0.587497   0.000000 3
Si   -33.398191   364.266836     1.920113   0.544934  -0.554655   0.000000 3
Si   -29.342770   364.094155     0.000000   0.527180  -0.727335   0.000000 3
Si   -26.664672   362.042057     1.920113   0.489828  -0.859321   0.000000 3
Si   -26.595690   365.878372     1.920113   0.558810  -0.863232   0.000000 3
Si   -27.988143   364.028290     1.920113   0.524082  -0.793200   0.000000 3
Si   -23.909577   363.816597     0.000000   0.529473  -1.004894   0.000000 3
Si   -21.214063   361.782705     1.920113   0.509537  -1.118672   0.000000 3
Si   -21.137085   365.563780     1.920113   0.586515  -1.177824   0.000000 3
Si   -22.544528   363.745089     1.920113   0.536797  -1.076402   0.000000 3
Si   -18.435286   363.543293     0.000000   0.572864  -1.278198   0.000000 3
Si   -15.734950   361.549697     1.920113   0.557750  -1.351680   0.000000 3
Si   -15.638644   365.298217     1.920113   0.654056  -1.443387   0.000000 3
Si   -17.062386   363.482849     1.920113   0.588039  -1.338642   0.000000 3
Si   -12.941552   363.325697     0.000000   0.635698  -1.495794   0.000000 3
Si   -10.249743   361.365074     1.920113   0.612057  -1.536304   0.000000 3
Si   -10.139366   365.109900     1.920113   0.722434  -1.631704   0.000000 3
Si   -11.568639   363.280765     1.920113   0.650886  -1.540725   0.000000 3
Si    -7.455453   363.161979     0.000000   0.690897  -1.659511   0.000000 3
Si    -4.774503   361.214479     1.920113   0.656397  -1.686898   0.000000 3
Si    -4.659270   364.965703     1.920113   0.771630  -1.775901   0.000000 3
Si    -6.086500   363.125741     1.920113   0.702125  -1.695750   0.000000 3
Si    -1.985091   363.018127     0.000000   0.730359  -1.803364   0.000000 3
Si     0.691280   361.067998     1.920113   0.691280  -1.833380   0.000000 3
Si     0.805034   364.816040     1.920113   0.805034  -1.925564   0.000000 3
Si    -0.619118   362.980469     1.920113   0.738607  -1.841022   0.000000 3
Si   -52.239474   374.280940     0.000000   0.711801  -0.141116   0.000000 3
Si   -52.202864   378.132044     0.000000   0.748411  -0.130239   0.000000 3
Si   -54.958401   376.217345     1.920113   0.708324  -0.124825   0.000000 3
Si   -50.849534   376.201446     0.000000   0.744016  -0.140724   0.000000 3
Si   -46.767190   374.250869     0.000000   0.753185  -0.171188   0.000000 3
Si   -46.715001   378.111192     0.000000   0.805374  -0.151090   0.000000 3
Si   -49.479478   376.195440     1.920113   0.756347  -0.146730   0.000000 3
Si   -45.368523   376.174121     0.000000   0.794127  -0.168048   0.000000 3
Si   -41.299748   374.204190     0.000000   0.789727  -0.217867   0.000000 3
Si   -41.221380   378.082185     0.000000   0.868095  -0.180097   0.000000 3
Si   -43.998188   376.165456     1.920113   0.806737  -0.176714   0.000000 3
Si   -39.889171   376.131391     0.000000   0.842579  -0.210778   0.000000 3
Si   -35.851498   374.115764     0.000000   0.807077  -0.306293   0.000000 3
Si   -35.729134   378.030447     0.000000   0.929441  -0.231836   0.000000 3
Si   -38.521064   376.115896     1.920113   0.852961  -0.226273   0.000000 3
Si   -34.428462   376.044899     0.000000   0.872388  -0.297270   0.000000 3
Si   -30.449359   373.910635     0.000000   0.778316  -0.511421   0.000000 3
Si   -30.277427   377.888562     0.000000   0.950248  -0.373721   0.000000 3
Si   -33.070923   376.007394     1.920113   0.872202  -0.334775   0.000000 3
Si   -29.030795   375.806241     0.000000   0.839155  -0.535929   0.000000 3
Si   -25.062627   373.457955     0.000000   0.734148  -0.964101   0.000000 3
Si   -24.932443   377.320167     0.000000   0.864332  -0.942115   0.000000 3
Si   -27.693232   375.692661     1.920113   0.818993  -0.649508   0.000000 3
Si   -23.639093   375.204356     0.000000   0.799957  -1.137813   0.000000 3
Si   -19.546465   372.940621     0.000000   0.819410  -1.481436   0.000000 3
Si   -19.366228   376.569815     0.000000   0.999647  -1.692468   0.000000 3
Si   -22.256895   375.033859     1.920113   0.824430  -1.308310   0.000000 3
Si   -18.073230   374.675760     0.000000   0.934920  -1.666410   0.000000 3
Si   -14.002541   372.670021     0.000000   0.932434  -1.752036   0.000000 3
Si   -13.845988   376.356945     0.000000   1.088987  -1.905337   0.000000 3
Si   -16.684789   374.606622     1.920113   0.965636  -1.735547   0.000000 3
Si   -12.551407   374.481851     0.000000   1.025843  -1.860319   0.000000 3
Si    -8.509529   372.545177     0.000000   0.994546  -1.876879   0.000000 3
Si    -8.390761   376.284276     0.000000   1.113314  -1.978007   0.000000 3
Si   -11.181152   374.455692     1.920113   1.038373  -1.886477   0.000000 3
Si    -7.081559   374.395159     0.000000   1.064791  -1.947010   0.000000 3
Si    -3.045283   372.451836     0.000000   1.027892  -1.970220   0.000000 3
Si    -2.943796   376.227701     0.000000   1.129379  -2.034582   0.000000 3
Si    -5.717213   374.377047     1.920113   1.071412  -1.965122   0.000000 3
Si    -1.628154   374.315742     0.000000   1.087296  -2.026427   0.000000 3
Si    -0.266516   374.289555     1.920113   1.091209  -2.052614   0.000000 3
Si   -53.652326   370.433327     1.920113   0.656674  -0.148503   0.000000 3
Si   -53.607572   374.287069     1.920113   0.701428  -0.134987   0.000000 3
Si   -54.995418   372.367296     1.920113   0.671307  -0.134647   0.000000 3
Si   -50.896067   372.345994     0.000000   0.697483  -0.155949   0.000000 3
Si   -48.194925   370.396131     1.920113   0.683175  -0.185700   0.000000 3
Si   -48.135112   374.259446     1.920113   0.742988  -0.162610   0.000000 3
Si   -49.529907   372.337634     1.920113   0.705918  -0.164309   0.000000 3
Si   -45.433509   372.306809     0.000000   0.729141  -0.195134   0.000000 3
Si   -42.746583   370.338840     1.920113   0.700617  -0.242990   0.000000 3
Si   -42.665601   374.218321     1.920113   0.781599  -0.203735   0.000000 3
Si   -44.069169   372.293893     1.920113   0.735756  -0.208050   0.000000 3
Si   -39.982201   372.242334     0.000000   0.749549  -0.259609   0.000000 3
Si   -37.317252   370.239275     1.920113   0.699048  -0.342555   0.000000 3
Si   -37.210403   374.144500     1.920113   0.805897  -0.277556   0.000000 3
Si   -38.622770   372.219021     1.920113   0.751255  -0.282922   0.000000 3
Si   -34.557388   372.118219     0.000000   0.743462  -0.383725   0.000000 3
Si   -31.915568   370.051701     1.920113   0.669832  -0.530130   0.000000 3
Si   -31.794492   373.980405     1.920113   0.790908  -0.441651   0.000000 3
Si   -33.207284   372.069918     1.920113   0.735841  -0.432025   0.000000 3
Si   -29.167975   371.858779     0.000000   0.701975  -0.643164   0.000000 3
Si   -26.515918   369.724839     1.920113   0.638582  -0.856991   0.000000 3
Si   -26.417135   373.595087     1.920113   0.737365  -0.826969   0.000000 3
Si   -27.820866   371.762945     1.920113   0.691359  -0.738998   0.000000 3
Si   -23.747694   371.420435     0.000000   0.691356  -1.081508   0.000000 3
Si   -21.047571   369.325262     1.920113   0.676029  -1.256568   0.000000 3
Si   -20.935935   373.049707     1.920113   0.787665  -1.372349   0.000000 3
Si   -22.374941   371.303472     1.920113   0.706384  -1.198471   0.000000 3
Si   -18.226486   371.009400     0.000000   0.781664  -1.492543   0.000000 3
Si   -15.523742   369.022996     1.920113   0.768958  -1.558834   0.000000 3
Si   -15.383502   372.717685     1.920113   0.909198  -1.704371   0.000000 3
Si   -16.841096   370.936094     1.920113   0.809329  -1.565849   0.000000 3
Si   -12.696948   370.778327     0.000000   0.880302  -1.723616   0.000000 3
Si   -10.013877   368.843828     1.920113   0.847923  -1.738002   0.000000 3
Si    -9.879139   372.570262     1.920113   0.982661  -1.851794   0.000000 3
Si   -11.320730   370.740594     1.920113   0.898795  -1.761349   0.000000 3
Si    -7.205558   370.650045     0.000000   0.940792  -1.851898   0.000000 3
Si    -4.533980   368.718327     1.920113   0.896920  -1.863503   0.000000 3
Si    -4.409680   372.476221     1.920113   1.021220  -1.945835   0.000000 3
Si    -5.837430   370.623264     1.920113   0.951195  -1.878679   0.000000 3
Si    -1.740701   370.537805     0.000000   0.974749  -1.964138   0.000000 3
Si     0.925980   368.577067     1.920113   0.925980  -2.004763   0.000000 3
Si     1.042712   372.358453     1.920113   1.042712  -2.063603   0.000000 3
Si    -0.377091   370.503810     1.920113   0.980634  -1.998133   0.000000 3
Si   -52.182988   381.979346     0.000000   0.768287  -0.123163   0.000000 3
Si   -52.183222   385.825171     0.000000   0.768053  -0.117564   0.000000 3
Si   -54.925643   383.908051     1.920113   0.741082  -0.114571   0.000000 3
Si   -50.806952   383.899394     0.000000   0.786598  -0.123228   0.000000 3
Si   -46.685378   381.965258     0.000000   0.834997  -0.137251   0.000000 3
Si   -46.685664   385.816665     0.000000   0.834711  -0.126070   0.000000 3
Si   -49.432664   383.896554     1.920113   0.803161  -0.126068   0.000000 3
Si   -45.304610   383.888207     0.000000   0.858040  -0.134414   0.000000 3
Si   -41.172952   381.949358     0.000000   0.916523  -0.153151   0.000000 3
Si   -41.173359   385.811000     0.000000   0.916116  -0.131735   0.000000 3
Si   -43.926533   383.885490     1.920113   0.878392  -0.137132   0.000000 3
Si   -39.784132   383.877573     0.000000   0.947618  -0.145048   0.000000 3
Si   -35.637771   381.928285     0.000000   1.020804  -0.174223   0.000000 3
Si   -35.638503   385.811923     0.000000   1.020072  -0.130812   0.000000 3
Si   -38.399897   383.875022     1.920113   0.974128  -0.147600   0.000000 3
Si   -34.231905   383.867689     0.000000   1.068945  -0.154933   0.000000 3
Si   -30.067590   381.884835     0.000000   1.160085  -0.217673   0.000000 3
Si   -30.069636   385.837461     0.000000   1.158039  -0.105274   0.000000 3
Si   -32.835354   383.865370     1.920113   1.107771  -0.157252   0.000000 3
Si   -28.603435   383.858988     0.000000   1.266515  -0.163634   0.000000 3
Si   -24.646547   381.371550     0.000000   1.150228  -0.730959   0.000000 3
Si   -24.653426   386.339182     0.000000   1.143349   0.396447   0.000000 3
Si   -27.164839   383.857216     1.920113   1.347386  -0.165406   0.000000 3
Si   -22.660105   381.920716     0.000000   1.778945  -2.101905   0.000000 3
Si   -19.090093   380.121902     0.000000   1.275782  -1.980606   0.000000 3
Si   -19.093344   383.723485     0.000000   1.272531  -2.219250   0.000000 3
Si   -21.560635   381.925087     1.920113   1.520690  -2.097535   0.000000 3
Si   -17.702014   381.921575     0.000000   1.306136  -2.101047   0.000000 3
Si   -13.721980   380.057624     0.000000   1.212995  -2.044884   0.000000 3
Si   -13.723012   383.776971     0.000000   1.211963  -2.165764   0.000000 3
Si   -16.376375   381.920123     1.920113   1.274050  -2.102499   0.000000 3
Si   -12.358738   381.916039     0.000000   1.218512  -2.106582   0.000000 3
Si    -8.316880   380.034343     0.000000   1.187195  -2.068166   0.000000 3
Si    -8.317513   383.790850     0.000000   1.186562  -2.151885   0.000000 3
Si   -11.010925   381.914815     1.920113   1.208600  -2.107807   0.000000 3
Si    -6.951757   381.911635     0.000000   1.194593  -2.110987   0.000000 3
Si    -2.885374   380.013980     0.000000   1.187801  -2.088529   0.000000 3
Si    -2.885918   383.804583     0.000000   1.187257  -2.138152   0.000000 3
Si    -5.594908   381.910756     1.920113   1.193717  -2.111866   0.000000 3
Si    -1.518514   381.908709     0.000000   1.196936  -2.113912   0.000000 3
Si    -0.159413   381.908242     1.920113   1.198312  -2.114380   0.000000 3
Si   -53.573824   378.136592     1.920113   0.735176  -0.125691   0.000000 3
Si   -53.555643   381.982727     1.920113   0.753357  -0.119782   0.000000 3
Si   -54.934037   380.063794     1.920113   0.732688  -0.118601   0.000000 3
Si   -50.818016   380.052012     0.000000   0.775534  -0.130383   0.000000 3
Si   -48.087572   378.116915     1.920113   0.790528  -0.145367   0.000000 3
Si   -48.060955   381.968891     1.920113   0.817145  -0.133618   0.000000 3
Si   -49.444897   380.047820     1.920113   0.790928  -0.134576   0.000000 3
Si   -45.321698   380.034008     0.000000   0.840952  -0.148388   0.000000 3
Si   -42.595156   378.090679     1.920113   0.852044  -0.171603   0.000000 3
Si   -42.552797   381.953614     1.920113   0.894403  -0.148895   0.000000 3
Si   -43.945890   380.028817     1.920113   0.859035  -0.153579   0.000000 3
Si   -39.813836   380.010178     0.000000   0.917914  -0.172218   0.000000 3
Si   -37.100979   378.047321     1.920113   0.915321  -0.214962   0.000000 3
Si   -37.024344   381.934453     1.920113   0.991956  -0.168055   0.000000 3
Si   -38.434951   380.002359     1.920113   0.939074  -0.180037   0.000000 3
Si   -34.295531   379.968653     0.000000   1.005319  -0.213743   0.000000 3
Si   -31.631363   377.942570     1.920113   0.954037  -0.319713   0.000000 3
Si   -31.463708   381.900807     1.920113   1.121692  -0.201702   0.000000 3
Si   -32.916468   379.950913     1.920113   1.026657  -0.231482   0.000000 3
Si   -28.808061   379.834588     0.000000   1.061889  -0.347807   0.000000 3
Si   -26.270870   377.532362     1.920113   0.883630  -0.729920   0.000000 3
Si   -25.925282   381.703606     1.920113   1.229218  -0.398903   0.000000 3
Si   -27.465774   379.738763     1.920113   1.046451  -0.443632   0.000000 3
Si   -23.469948   378.938587     0.000000   0.969102  -1.243809   0.000000 3
Si   -20.769002   376.692285     1.920113   0.954598  -1.569997   0.000000 3
Si   -20.440262   380.174363     1.920113   1.283338  -1.928145   0.000000 3
Si   -22.053384   378.640685     1.920113   1.027941  -1.541711   0.000000 3
Si   -17.858104   378.286802     0.000000   1.150046  -1.895593   0.000000 3
Si   -15.215589   376.387189     1.920113   1.077111  -1.875093   0.000000 3
Si   -15.067079   380.066405     1.920113   1.225621  -2.036104   0.000000 3
Si   -16.491907   378.248458     1.920113   1.158518  -1.933938   0.000000 3
Si   -12.417554   378.189281     0.000000   1.159696  -1.993114   0.000000 3
Si    -9.752964   376.298649     1.920113   1.108836  -1.963633   0.000000 3
Si    -9.671341   380.039272     1.920113   1.190459  -2.063237   0.000000 3
Si   -11.060927   378.177424     1.920113   1.158598  -2.004972   0.000000 3
Si    -6.987353   378.148934     0.000000   1.158997  -2.033462   0.000000 3
Si    -4.305357   376.243137     1.920113   1.125543  -2.019146   0.000000 3
Si    -4.244666   380.019612     1.920113   1.186234  -2.082897   0.000000 3
Si    -5.628035   378.139919     1.920113   1.160590  -2.042476   0.000000 3
Si    -1.547666   378.107632     0.000000   1.167784  -2.074763   0.000000 3
Si     1.137806   376.164177     1.920113   1.137806  -2.098105   0.000000 3
Si     1.191775   379.990586     1.920113   1.191775  -2.111923   0.000000 3
Si    -0.187824   378.093144     1.920113   1.169901  -2.089251   0.000000 3
Si   -52.203544   389.672507     0.000000   0.747731  -0.110454   0.000000 3
Si   -52.240546   393.523664     0.000000   0.710729  -0.099524   0.000000 3
Si   -54.959247   391.598807     1.920113   0.707478  -0.104267   0.000000 3
Si   -50.850444   391.597414     0.000000   0.743106  -0.105661   0.000000 3
Si   -46.715810   389.670790     0.000000   0.804565  -0.112171   0.000000 3
Si   -46.768408   393.531194     0.000000   0.751967  -0.091993   0.000000 3
Si   -49.480421   391.597750     1.920113   0.755404  -0.105324   0.000000 3
Si   -45.369609   391.602419     0.000000   0.793041  -0.100655   0.000000 3
Si   -41.222465   389.678289     0.000000   0.867010  -0.104672   0.000000 3
Si   -41.301240   393.556403     0.000000   0.788235  -0.066785   0.000000 3
Si   -43.999340   391.605671     1.920113   0.805585  -0.097404   0.000000 3
Si   -39.890599   391.623995     0.000000   0.841151  -0.079079   0.000000 3
Si   -35.730804   389.710024     0.000000   0.927771  -0.072937   0.000000 3
Si   -35.853400   393.624796     0.000000   0.805175   0.001608   0.000000 3
Si   -38.522615   391.634432     1.920113   0.851410  -0.068642   0.000000 3
Si   -34.430472   391.690939     0.000000   0.870378  -0.012136   0.000000 3
Si   -30.280148   389.834110     0.000000   0.947527   0.051149   0.000000 3
Si   -30.451509   393.811437     0.000000   0.776166   0.188250   0.000000 3
Si   -33.073099   391.723858     1.920113   0.870026   0.020784   0.000000 3
Si   -29.033203   391.911788     0.000000   0.836747   0.208713   0.000000 3
Si   -24.934705   390.384222     0.000000   0.862070   0.601261   0.000000 3
Si   -25.064425   394.245788     0.000000   0.732350   0.622601   0.000000 3
Si   -27.695522   392.020896     1.920113   0.816703   0.317821   0.000000 3
Si   -23.641032   388.654393     0.000000   0.798018  -3.048681   0.000000 3
Si   -19.369286   387.275705     0.000000   0.996589  -2.507256   0.000000 3
Si   -19.548751   390.906013     0.000000   0.817124  -2.717174   0.000000 3
Si   -22.259022   388.820187     1.920113   0.822303  -2.882887   0.000000 3
Si   -18.075869   389.167056     0.000000   0.932281  -2.536018   0.000000 3
Si   -13.848219   387.477339     0.000000   1.086756  -2.305622   0.000000 3
Si   -14.005015   391.164293     0.000000   0.929960  -2.458895   0.000000 3
Si   -16.687402   389.233154     1.920113   0.963023  -2.469920   0.000000 3
Si   -12.553710   389.349863     0.000000   1.023540  -2.353211   0.000000 3
Si    -8.392443   387.540785     0.000000   1.111632  -2.242176   0.000000 3
Si    -8.511842   391.279783     0.000000   0.992233  -2.343404   0.000000 3
Si   -11.183353   389.373630     1.920113   1.036172  -2.329444   0.000000 3
Si    -7.083554   389.427922     0.000000   1.062796  -2.275152   0.000000 3
Si    -2.945321   387.590764     0.000000   1.127854  -2.192197   0.000000 3
Si    -3.047541   391.366491     0.000000   1.025634  -2.256696   0.000000 3
Si    -5.719173   389.444292     1.920113   1.069452  -2.258782   0.000000 3
Si    -1.630075   389.501468     0.000000   1.085375  -2.201606   0.000000 3
Si    -0.268436   389.526667     1.920113   1.089289  -2.176407   0.000000 3
Si   -53.555870   385.827564     1.920113   0.753130  -0.115171   0.000000 3
Si   -53.574485   389.673729     1.920113   0.734515  -0.109233   0.000000 3
Si   -54.934475   387.752321     1.920113   0.732250  -0.110527   0.000000 3
Si   -50.818495   387.746795     0.000000   0.775055  -0.116053   0.000000 3
Si   -48.061223   385.818597     1.920113   0.816877  -0.124137   0.000000 3
Si   -48.088339   389.670624     1.920113   0.789761  -0.112337   0.000000 3
Si   -49.445398   387.745311     1.920113   0.790427  -0.117537   0.000000 3
Si   -45.322296   387.742446     0.000000   0.840354  -0.120402   0.000000 3
Si   -42.553164   385.812021     1.920113   0.894036  -0.130714   0.000000 3
Si   -42.596152   389.675053     1.920113   0.851048  -0.107908   0.000000 3
Si   -43.946537   387.742210     1.920113   0.858388  -0.120638   0.000000 3
Si   -39.814703   387.745056     0.000000   0.917047  -0.117792   0.000000 3
Si   -37.024958   385.810629     1.920113   0.991342  -0.132106   0.000000 3
Si   -37.102459   389.697976     1.920113   0.913841  -0.084985   0.000000 3
Si   -38.435931   387.747795     1.920113   0.938094  -0.115053   0.000000 3
Si   -34.297082   387.766980     0.000000   1.003768  -0.095868   0.000000 3
Si   -31.465194   385.825641     1.920113   1.120206  -0.117094   0.000000 3
Si   -31.633807   389.784306     1.920113   0.951593   0.001345   0.000000 3
Si   -32.918336   387.780179     1.920113   1.024789  -0.082669   0.000000 3
Si   -28.811510   387.884331     0.000000   1.058440   0.021483   0.000000 3
Si   -25.932273   386.010424     1.920113   1.222227   0.067689   0.000000 3
Si   -26.273484   390.177388     1.920113   0.881016   0.394427   0.000000 3
Si   -27.469755   387.976638     1.920113   1.042470   0.113790   0.000000 3
Si   -23.472988   384.918910     0.000000   0.966062  -2.943938   0.000000 3
Si   -20.445273   383.673011     1.920113   1.278327  -2.269724   0.000000 3
Si   -20.771960   387.156678     1.920113   0.951640  -2.626283   0.000000 3
Si   -22.057262   385.210682     1.920113   1.024063  -2.652166   0.000000 3
Si   -17.861146   385.555616     0.000000   1.147004  -2.307232   0.000000 3
Si   -15.068349   383.770880     1.920113   1.224351  -2.171855   0.000000 3
Si   -15.218046   387.449723     1.920113   1.074654  -2.333239   0.000000 3
Si   -16.494420   385.591273     1.920113   1.156005  -2.271575   0.000000 3
Si   -12.419130   385.642611     0.000000   1.158120  -2.220237   0.000000 3
Si    -9.672028   383.788036     1.920113   1.189772  -2.154699   0.000000 3
Si    -9.754735   387.528497     1.920113   1.107065  -2.254464   0.000000 3
Si   -11.062339   385.652067     1.920113   1.157186  -2.210781   0.000000 3
Si    -6.988499   385.674270     0.000000   1.157851  -2.188578   0.000000 3
Si    -4.245220   383.800318     1.920113   1.185680  -2.142417   0.000000 3
Si    -4.306899   387.576699     1.920113   1.124001  -2.206262   0.000000 3
Si    -5.629139   385.681535     1.920113   1.159486  -2.181313   0.000000 3
Si    -1.548717   385.709727     0.000000   1.166733  -2.153121   0.000000 3
Si     1.191243   383.825170     1.920113   1.191243  -2.117565   0.000000 3
Si     1.136300   387.651393     1.920113   1.136300  -2.131568   0.000000 3
Si    -0.188869   385.723265     1.920113   1.168856  -2.139583   0.000000 3
Si   -52.288896   397.379411     0.000000   0.662379  -0.084003   0.000000 3
Si   -52.343179   401.239067     0.000000   0.608096  -0.064572   0.000000 3
Si   -55.042364   399.302864     1.920113   0.624361  -0.080662   0.000000 3
Si   -50.952748   399.313089     0.000000   0.640802  -0.070437   0.000000 3
Si   -46.833187   397.397855     0.000000   0.687188  -0.065558   0.000000 3
Si   -46.901473   401.268294     0.000000   0.618902  -0.035346   0.000000 3
Si   -49.590353   399.318379     1.920113   0.645472  -0.065148   0.000000 3
Si   -45.506874   399.342382     0.000000   0.655776  -0.041144   0.000000 3
Si   -41.388690   397.441423     0.000000   0.700785  -0.021991   0.000000 3
Si   -41.472424   401.326772     0.000000   0.617051   0.023132   0.000000 3
Si   -44.147331   399.353932     1.920113   0.657594  -0.029594   0.000000 3
Si   -40.075355   399.404240     0.000000   0.656395   0.020713   0.000000 3
Si   -35.966124   397.537413     0.000000   0.692451   0.074000   0.000000 3
Si   -36.060521   401.437092     0.000000   0.598054   0.133453   0.000000 3
Si   -38.720651   399.427863     1.920113   0.653374   0.044337   0.000000 3
Si   -34.664976   399.528120     0.000000   0.635874   0.144593   0.000000 3
Si   -30.569867   397.737739     0.000000   0.657808   0.274326   0.000000 3
Si   -30.659311   401.628320     0.000000   0.568364   0.324680   0.000000 3
Si   -33.315416   399.573681     1.920113   0.627709   0.190155   0.000000 3
Si   -29.266928   399.753922     0.000000   0.603022   0.370395   0.000000 3
Si   -25.159057   398.078835     0.000000   0.637718   0.615422   0.000000 3
Si   -25.238033   401.903751     0.000000   0.558742   0.600111   0.000000 3
Si   -27.914619   399.828190     1.920113   0.597606   0.444664   0.000000 3
Si   -23.836341   396.237004     0.000000   0.602709  -3.146522   0.000000 3
Si   -19.670660   394.611022     0.000000   0.695215  -2.852391   0.000000 3
Si   -19.766849   398.357460     0.000000   0.599026  -2.946180   0.000000 3
Si   -22.468282   396.321704     1.920113   0.613043  -3.061823   0.000000 3
Si   -18.343605   396.551461     0.000000   0.664545  -2.832066   0.000000 3
Si   -14.145927   394.865539     0.000000   0.789048  -2.597875   0.000000 3
Si   -14.265133   398.590272     0.000000   0.669842  -2.713368   0.000000 3
Si   -16.965054   396.615848     1.920113   0.685371  -2.767679   0.000000 3
Si   -12.830913   396.770807     0.000000   0.746337  -2.612720   0.000000 3
Si    -8.643989   395.014719     0.000000   0.860086  -2.448695   0.000000 3
Si    -8.770195   398.753463     0.000000   0.733880  -2.550177   0.000000 3
Si   -11.455170   396.811838     1.920113   0.764355  -2.571689   0.000000 3
Si    -7.337611   396.915575     0.000000   0.808739  -2.467951   0.000000 3
Si    -3.170389   395.131024     0.000000   0.902786  -2.332389   0.000000 3
Si    -3.295254   398.887323     0.000000   0.777921  -2.416316   0.000000 3
Si    -5.968234   396.946839     1.920113   0.820391  -2.436688   0.000000 3
Si    -1.867650   397.043682     0.000000   0.847800  -2.339844   0.000000 3
Si    -0.502562   397.080171     1.920113   0.855163  -2.303356   0.000000 3
Si   -53.608622   393.523299     1.920113   0.700378  -0.099888   0.000000 3
Si   -53.653706   397.377090     1.920113   0.655294  -0.086323   0.000000 3
Si   -54.996626   395.448902     1.920113   0.670099  -0.094398   0.000000 3
Si   -50.897334   395.452925     0.000000   0.696216  -0.090376   0.000000 3
Si   -48.136283   393.528166     1.920113   0.741817  -0.095021   0.000000 3
Si   -48.196397   397.391542     1.920113   0.681703  -0.071871   0.000000 3
Si   -49.531204   395.455620     1.920113   0.704621  -0.087681   0.000000 3
Si   -45.434935   395.469812     0.000000   0.727715  -0.073489   0.000000 3
Si   -42.667011   393.547519     1.920113   0.780189  -0.075668   0.000000 3
Si   -42.748227   397.427054     1.920113   0.698973  -0.036360   0.000000 3
Si   -44.070651   395.477317     1.920113   0.734274  -0.065984   0.000000 3
Si   -39.983886   395.513127     0.000000   0.747864  -0.030174   0.000000 3
Si   -37.212197   393.600912     1.920113   0.804103  -0.022275   0.000000 3
Si   -37.319101   397.506087     1.920113   0.697199   0.042673   0.000000 3
Si   -38.624531   395.531364     1.920113   0.749494  -0.011937   0.000000 3
Si   -34.559348   395.617503     0.000000   0.741502   0.074202   0.000000 3
Si   -31.796637   393.746180     1.920113   0.788763   0.122993   0.000000 3
Si   -31.917482   397.674467     1.920113   0.667918   0.211054   0.000000 3
Si   -33.209280   395.661090     1.920113   0.733845   0.117790   0.000000 3
Si   -29.169899   395.858441     0.000000   0.700051   0.315140   0.000000 3
Si   -26.419007   394.113317     1.920113   0.735493   0.490130   0.000000 3
Si   -26.517682   397.983135     1.920113   0.636818   0.519721   0.000000 3
Si   -27.822717   395.949726     1.920113   0.689508   0.406426   0.000000 3
Si   -23.749478   392.438575     0.000000   0.689572  -3.104725   0.000000 3
Si   -20.938049   390.800691     1.920113   0.785551  -2.822496   0.000000 3
Si   -21.049546   394.525749     1.920113   0.674054  -2.937665   0.000000 3
Si   -22.376815   392.551300     1.920113   0.704510  -2.992000   0.000000 3
Si   -18.228763   392.834118     0.000000   0.779387  -2.709183   0.000000 3
Si   -15.385995   391.119385     1.920113   0.906705  -2.503802   0.000000 3
Si   -15.526159   394.814442     1.920113   0.766541  -2.648971   0.000000 3
Si   -16.843474   392.904179     1.920113   0.806951  -2.639122   0.000000 3
Si   -12.699451   393.053470     0.000000   0.877799  -2.489830   0.000000 3
Si    -9.881489   391.256790     1.920113   0.980311  -2.366397   0.000000 3
Si   -10.016492   394.983269     1.920113   0.845308  -2.480144   0.000000 3
Si   -11.323238   393.088749     1.920113   0.896287  -2.454551   0.000000 3
Si    -7.208062   393.172967     0.000000   0.938288  -2.370333   0.000000 3
Si    -4.411940   391.343496     1.920113   1.018960  -2.279692   0.000000 3
Si    -4.536693   395.101304     1.920113   0.894207  -2.362110   0.000000 3
Si    -5.839938   393.197988     1.920113   0.948687  -2.345313   0.000000 3
Si    -1.743239   393.279236     0.000000   0.972211  -2.264064   0.000000 3
Si     1.040443   391.456833     1.920113   1.040443  -2.166354   0.000000 3
Si     0.923179   395.237945     1.920113   0.923179  -2.225468   0.000000 3
Si    -0.379642   393.312192     1.920113   0.978083  -2.231109   0.000000 3
Si   -52.399075   405.101170     0.000000   0.552200  -0.042696   0.000000 3
Si   -52.453691   408.964149     0.000000   0.497584  -0.019943   0.000000 3
Si   -55.143558   407.019220     1.920113   0.523167  -0.044759   0.000000 3
Si   -51.068982   407.041045     0.000000   0.524568  -0.022934   0.000000 3
Si   -46.967835   405.139560     0.000000   0.552540  -0.004306   0.000000 3
Si   -47.029612   409.009402     0.000000   0.490763   0.025309   0.000000 3
Si   -49.711846   407.050760     1.920113   0.523979  -0.013219   0.000000 3
Si   -45.644116   407.089408     0.000000   0.518534   0.025429   0.000000 3
Si   -41.547881   405.207960     0.000000   0.541594   0.064094   0.000000 3
Si   -41.614455   409.083135     0.000000   0.475020   0.099043   0.000000 3
Si   -44.289508   407.106076     1.920113   0.515417   0.042097   0.000000 3
Si   -40.229514   407.170372     0.000000   0.502236   0.106393   0.000000 3
Si   -36.139184   405.322509     0.000000   0.519391   0.178643   0.000000 3
Si   -36.205873   409.195885     0.000000   0.452702   0.211793   0.000000 3
Si   -38.877287   407.197292     1.920113   0.496738   0.133313   0.000000 3
Si   -34.822230   407.297107     0.000000   0.478620   0.233128   0.000000 3
Si   -30.732544   405.497454     0.000000   0.495131   0.353588   0.000000 3
Si   -30.795279   409.353653     0.000000   0.432396   0.369561   0.000000 3
Si   -33.470416   407.337067     1.920113   0.472709   0.273088   0.000000 3
Si   -29.410829   407.476147     0.000000   0.459121   0.412167   0.000000 3
Si   -25.307365   405.726115     0.000000   0.489410   0.582249   0.000000 3
Si   -25.369212   409.547834     0.000000   0.427563   0.563742   0.000000 3
Si   -28.055273   407.527979     1.920113   0.456952   0.464000   0.000000 3
Si   -23.978327   403.852701     0.000000   0.460723  -3.211278   0.000000 3
Si   -19.848422   402.127469     0.000000   0.517453  -3.016397   0.000000 3
Si   -19.919348   405.911811     0.000000   0.446527  -3.072281   0.000000 3
Si   -22.615627   403.908679     1.920113   0.465698  -3.155300   0.000000 3
Si   -18.517681   404.070737     0.000000   0.490469  -2.993242   0.000000 3
Si   -14.365935   402.335983     0.000000   0.569040  -2.807883   0.000000 3
Si   -14.451482   406.097627     0.000000   0.483493  -2.886465   0.000000 3
Si   -17.149231   404.121186     1.920113   0.501194  -2.942793   0.000000 3
Si   -13.040735   404.258515     0.000000   0.536515  -2.805464   0.000000 3
Si    -8.882686   402.499833     0.000000   0.621389  -2.644033   0.000000 3
Si    -8.979441   406.254428     0.000000   0.524634  -2.729665   0.000000 3
Si   -11.671131   404.299664     1.920113   0.548394  -2.764315   0.000000 3
Si    -7.564773   404.412072     0.000000   0.581577  -2.651907   0.000000 3
Si    -3.410808   402.639410     0.000000   0.662367  -2.504456   0.000000 3
Si    -3.512087   406.390822     0.000000   0.561088  -2.593271   0.000000 3
Si    -6.197101   404.446947     1.920113   0.591524  -2.617032   0.000000 3
Si    -2.097054   404.548942     0.000000   0.618396  -2.515037   0.000000 3
Si    -0.730869   404.583237     1.920113   0.626856  -2.480742   0.000000 3
Si   -53.704933   401.234658     1.920113   0.604067  -0.068982   0.000000 3
Si   -53.758309   405.094805     1.920113   0.550691  -0.049061   0.000000 3
Si   -55.092412   403.160019     1.920113   0.574313  -0.063734   0.000000 3
Si   -51.011220   403.176410     0.000000   0.582330  -0.047343   0.000000 3
Si   -48.260940   401.258889     1.920113   0.617160  -0.044751   0.000000 3
Si   -48.324687   405.127688     1.920113   0.553413  -0.016178   0.000000 3
Si   -49.651864   403.184130     1.920113   0.583961  -0.039622   0.000000 3
Si   -45.577857   403.216558     0.000000   0.584793  -0.007195   0.000000 3
Si   -42.828184   401.308366     1.920113   0.619016   0.004726   0.000000 3
Si   -42.901712   405.187222     1.920113   0.545488   0.043356   0.000000 3
Si   -44.221433   403.231225     1.920113   0.583492   0.007472   0.000000 3
Si   -40.157594   403.290890     0.000000   0.574156   0.067137   0.000000 3
Si   -37.411895   401.403022     1.920113   0.604405   0.099382   0.000000 3
Si   -37.490584   405.288596     1.920113   0.525716   0.144730   0.000000 3
Si   -38.804811   403.317157     1.920113   0.569214   0.093404   0.000000 3
Si   -34.750741   403.420202     0.000000   0.550109   0.196449   0.000000 3
Si   -32.009870   401.571755     1.920113   0.575530   0.268115   0.000000 3
Si   -32.085017   405.447832     1.920113   0.500383   0.303966   0.000000 3
Si   -33.400061   403.463644     1.920113   0.543064   0.239891   0.000000 3
Si   -29.344620   403.622402     0.000000   0.525330   0.398649   0.000000 3
Si   -26.597507   401.829429     1.920113   0.556993   0.525789   0.000000 3
Si   -26.666595   405.665664     1.920113   0.487905   0.521798   0.000000 3
Si   -27.989995   403.683811     1.920113   0.522230   0.460058   0.000000 3
Si   -23.911518   400.042589     0.000000   0.527532  -3.181164   0.000000 3
Si   -21.139112   398.287535     1.920113   0.584488  -3.016105   0.000000 3
Si   -21.216202   402.068783     1.920113   0.507398  -3.075083   0.000000 3
Si   -22.546529   400.110132     1.920113   0.534796  -3.113621   0.000000 3
Si   -18.437548   400.301000     0.000000   0.570602  -2.922753   0.000000 3
Si   -15.641073   398.539544     1.920113   0.651627  -2.764096   0.000000 3
Si   -15.737456   402.288300     1.920113   0.555244  -2.855566   0.000000 3
Si   -17.064748   400.358150     1.920113   0.585677  -2.865603   0.000000 3
Si   -12.944202   400.506521     0.000000   0.633048  -2.717232   0.000000 3
Si   -10.142126   398.717316     1.920113   0.719674  -2.586323   0.000000 3
Si   -10.252618   402.462273     1.920113   0.609182  -2.681593   0.000000 3
Si   -11.571376   400.548894     1.920113   0.648149  -2.674859   0.000000 3
Si    -7.458417   400.661095     0.000000   0.687933  -2.562658   0.000000 3
Si    -4.662259   398.853890     1.920113   0.768641  -2.449750   0.000000 3
Si    -4.777682   402.605116     1.920113   0.653218  -2.538750   0.000000 3
Si    -6.089529   400.695502     1.920113   0.699096  -2.528251   0.000000 3
Si    -1.988294   400.798693     0.000000   0.727156  -2.425060   0.000000 3
Si     0.801871   398.998774     1.920113   0.801871  -2.304866   0.000000 3
Si     0.687854   402.746709     1.920113   0.687854  -2.397157   0.000000 3
Si    -0.622372   400.835230     1.920113   0.735353  -2.388523   0.000000 3
Si   -52.505357   412.826713     0.000000   0.445918   0.002395   0.000000 3
Si   -52.553257   416.687968     0.000000   0.398018   0.023424   0.000000 3
Si   -55.241151   414.739146     1.920113   0.425574  -0.005285   0.000000 3
Si   -51.174727   414.768419     0.000000   0.418823   0.023988   0.000000 3
Si   -47.085853   412.876503     0.000000   0.434522   0.052184   0.000000 3
Si   -47.136477   416.740285     0.000000   0.383898   0.075741   0.000000 3
Si   -49.820047   414.780526     1.920113   0.415778   0.036095   0.000000 3
Si   -45.758305   414.825209     0.000000   0.404345   0.080777   0.000000 3
Si   -41.672916   412.952086     0.000000   0.416559   0.127768   0.000000 3
Si   -41.724299   416.815333     0.000000   0.365176   0.150788   0.000000 3
Si   -44.405083   414.843205     1.920113   0.399842   0.098773   0.000000 3
Si   -40.346874   414.907703     0.000000   0.384876   0.163271   0.000000 3
Si   -36.263369   413.059910     0.000000   0.395206   0.235592   0.000000 3
Si   -36.313492   416.916816     0.000000   0.345083   0.252272   0.000000 3
Si   -38.994394   414.932922     1.920113   0.379631   0.188490   0.000000 3
Si   -34.936398   415.020107     0.000000   0.364452   0.275675   0.000000 3
Si   -30.850166   413.201726     0.000000   0.377509   0.377408   0.000000 3
Si   -30.898544   417.044414     0.000000   0.329131   0.379869   0.000000 3
Si   -33.583164   415.052915     1.920113   0.359961   0.308484   0.000000 3
Si   -29.520058   415.161216     0.000000   0.349892   0.416784   0.000000 3
Si   -25.424424   413.369528     0.000000   0.372351   0.545210   0.000000 3
Si   -25.473442   417.191310     0.000000   0.323333   0.526765   0.000000 3
Si   -28.164184   415.200037     1.920113   0.348041   0.455605   0.000000 3
Si   -24.090977   411.481208     0.000000   0.348073  -3.263223   0.000000 3
Si   -19.981259   409.705283     0.000000   0.384616  -3.119035   0.000000 3
Si   -20.035078   413.504736     0.000000   0.330797  -3.159808   0.000000 3
Si   -22.731290   411.522428     1.920113   0.350035  -3.222004   0.000000 3
Si   -18.646797   411.644691     0.000000   0.361353  -3.099741   0.000000 3
Si   -14.524017   409.870744     0.000000   0.410958  -2.953575   0.000000 3
Si   -14.585313   413.652036     0.000000   0.349662  -3.012508   0.000000 3
Si   -17.283752   411.684236     1.920113   0.366673  -3.060195   0.000000 3
Si   -13.191459   411.797084     0.000000   0.385791  -2.947348   0.000000 3
Si    -9.061033   410.016468     0.000000   0.443042  -2.807851   0.000000 3
Si    -9.129099   413.784898     0.000000   0.374976  -2.879646   0.000000 3
Si   -11.826677   411.832507     1.920113   0.392848  -2.911924   0.000000 3
Si    -7.731498   411.932013     0.000000   0.414852  -2.812419   0.000000 3
Si    -3.598158   410.144143     0.000000   0.475017  -2.680175   0.000000 3
Si    -3.670126   413.901049     0.000000   0.403049  -2.763496   0.000000 3
Si    -6.366319   411.963031     1.920113   0.422306  -2.781401   0.000000 3
Si    -2.270360   412.050137     0.000000   0.445090  -2.694294   0.000000 3
Si    -0.904704   412.077204     1.920113   0.453021  -2.667228   0.000000 3
Si   -53.811020   408.956143     1.920113   0.497980  -0.027949   0.000000 3
Si   -53.861335   412.817461     1.920113   0.447665  -0.006858   0.000000 3
Si   -55.193588   410.879267     1.920113   0.473137  -0.024938   0.000000 3
Si   -51.123840   410.905417     0.000000   0.469710   0.001211   0.000000 3
Si   -48.384801   408.995824     1.920113   0.493299   0.011731   0.000000 3
Si   -48.440065   412.861922     1.920113   0.438035   0.037603   0.000000 3
Si   -49.768207   410.916587     1.920113   0.467618   0.012381   0.000000 3
Si   -45.704309   410.959204     0.000000   0.458341   0.054999   0.000000 3
Si   -42.967448   409.061444     1.920113   0.479752   0.077352   0.000000 3
Si   -43.025644   412.930381     1.920113   0.421556   0.106063   0.000000 3
Si   -44.350654   410.976900     1.920113   0.454271   0.072695   0.000000 3
Si   -40.292150   411.042399     0.000000   0.439600   0.138193   0.000000 3
Si   -37.557749   409.163543     1.920113   0.458551   0.179451   0.000000 3
Si   -37.615761   413.029702     1.920113   0.400539   0.205383   0.000000 3
Si   -38.939902   411.068781     1.920113   0.434123   0.164576   0.000000 3
Si   -34.883329   411.162725     0.000000   0.417521   0.258520   0.000000 3
Si   -32.148836   409.310120     1.920113   0.436564   0.326028   0.000000 3
Si   -32.204310   413.163323     1.920113   0.381090   0.339004   0.000000 3
Si   -33.530676   411.199001     1.920113   0.412449   0.294795   0.000000 3
Si   -29.468811   411.321338     0.000000   0.401139   0.417133   0.000000 3
Si   -26.727849   409.497098     1.920113   0.426651   0.513006   0.000000 3
Si   -26.782432   413.326005     1.920113   0.372068   0.501687   0.000000 3
Si   -28.112966   411.365880     1.920113   0.399259   0.461674   0.000000 3
Si   -24.037972   407.665902     0.000000   0.401078  -3.238304   0.000000 3
Si   -21.283969   405.861572     1.920113   0.439631  -3.122520   0.000000 3
Si   -21.343638   409.661647     1.920113   0.379962  -3.162671   0.000000 3
Si   -22.677004   407.713516     1.920113   0.404321  -3.190689   0.000000 3
Si   -18.586937   407.853449     0.000000   0.421213  -3.050756   0.000000 3
Si   -15.819382   406.053871     1.920113   0.473318  -2.930221   0.000000 3
Si   -15.889206   409.831085     1.920113   0.403494  -2.993233   0.000000 3
Si   -17.221652   407.898060     1.920113   0.428773  -3.006145   0.000000 3
Si   -13.122523   408.023126     0.000000   0.454727  -2.881079   0.000000 3
Si   -10.347181   406.217707     1.920113   0.514619  -2.766385   0.000000 3
Si   -10.426892   409.981930     1.920113   0.434908  -2.842388   0.000000 3
Si   -11.755654   408.061720     1.920113   0.463871  -2.842485   0.000000 3
Si    -7.655480   408.169118     0.000000   0.490870  -2.735088   0.000000 3
Si    -4.878420   406.357774     1.920113   0.552480  -2.626318   0.000000 3
Si    -4.963808   410.113604     1.920113   0.467092  -2.710715   0.000000 3
Si    -6.289129   408.202604     1.920113   0.499496  -2.701601   0.000000 3
Si    -2.191034   408.298457     0.000000   0.524416  -2.605748   0.000000 3
Si     0.586604   406.488978     1.920113   0.586604  -2.495115   0.000000 3
Si     0.499603   410.231059     1.920113   0.499603  -2.593259   0.000000 3
Si    -0.824989   408.329330     1.920113   0.532736  -2.574876   0.000000 3
Si   -52.597103   420.547376     0.000000   0.354172   0.042605   0.000000 3
Si   -52.636908   424.404667     0.000000   0.314367   0.059670   0.000000 3
Si   -55.326400   422.455684     1.920113   0.340325   0.030801   0.000000 3
Si   -51.263436   422.488034     0.000000   0.330114   0.063150   0.000000 3
Si   -47.181780   420.600632     0.000000   0.338595   0.095861   0.000000 3
Si   -47.222188   424.457671     0.000000   0.298187   0.112674   0.000000 3
Si   -49.909605   422.500791     1.920113   0.326220   0.075907   0.000000 3
Si   -45.849306   422.545641     0.000000   0.313344   0.120757   0.000000 3
Si   -41.769541   420.673612     0.000000   0.319934   0.168841   0.000000 3
Si   -41.809422   424.527649     0.000000   0.280053   0.182651   0.000000 3
Si   -44.496171   422.562914     1.920113   0.308754   0.138030   0.000000 3
Si   -40.437085   422.622081     0.000000   0.294665   0.197197   0.000000 3
Si   -36.357437   420.768264     0.000000   0.301138   0.263493   0.000000 3
Si   -36.396041   424.615447     0.000000   0.262534   0.270450   0.000000 3
Si   -39.083993   422.644281     1.920113   0.290032   0.219397   0.000000 3
Si   -35.023702   422.718101     0.000000   0.277148   0.293217   0.000000 3
Si   -30.941209   420.883316     0.000000   0.286466   0.378546   0.000000 3
Si   -30.978739   424.719407     0.000000   0.248936   0.374410   0.000000 3
Si   -33.669724   422.744967     1.920113   0.273401   0.320083   0.000000 3
Si   -29.605312   422.831309     0.000000   0.264638   0.406425   0.000000 3
Si   -25.516643   421.013110     0.000000   0.280132   0.508339   0.000000 3
Si   -25.554444   424.834821     0.000000   0.242331   0.489824   0.000000 3
Si   -28.249512   422.861660     1.920113   0.262713   0.436776   0.000000 3
Si   -24.178628   419.115452     0.000000   0.260422  -3.309432   0.000000 3
Si   -20.081574   417.308187     0.000000   0.284301  -3.196584   0.000000 3
Si   -20.121516   421.114373     0.000000   0.244359  -3.230624   0.000000 3
Si   -22.820456   419.147317     1.920113   0.260869  -3.277567   0.000000 3
Si   -18.742388   419.242541     0.000000   0.265762  -3.182343   0.000000 3
Si   -14.636930   417.439237     0.000000   0.298045  -3.065534   0.000000 3
Si   -14.680297   421.230847     0.000000   0.254678  -3.114150   0.000000 3
Si   -17.381928   419.273724     1.920113   0.268497  -3.151160   0.000000 3
Si   -13.297732   419.364020     0.000000   0.279518  -3.060864   0.000000 3
Si    -9.185593   417.558800     0.000000   0.318482  -2.945971   0.000000 3
Si    -9.232429   421.337469     0.000000   0.271646  -3.007528   0.000000 3
Si   -11.935524   419.392726     1.920113   0.284001  -3.032158   0.000000 3
Si    -7.846944   419.473581     0.000000   0.299406  -2.951303   0.000000 3
Si    -3.729879   417.662492     0.000000   0.343296  -2.842279   0.000000 3
Si    -3.779423   421.428911     0.000000   0.293752  -2.916087   0.000000 3
Si    -6.483504   419.498551     1.920113   0.305121  -2.926333   0.000000 3
Si    -2.391541   419.566435     0.000000   0.323909  -2.858449   0.000000 3
Si    -1.026980   419.586395     1.920113   0.330745  -2.838489   0.000000 3
Si   -53.908330   416.677859     1.920113   0.400670   0.013314   0.000000 3
Si   -53.951608   420.536755     1.920113   0.357392   0.031985   0.000000 3
Si   -55.285524   418.598115     1.920113   0.381201   0.013457   0.000000 3
Si   -51.221259   418.629398     0.000000   0.372291   0.044740   0.000000 3
Si   -48.490168   416.725265     1.920113   0.387932   0.060720   0.000000 3
Si   -48.535243   420.585590     1.920113   0.342857   0.080819   0.000000 3
Si   -49.867140   418.642002     1.920113   0.368685   0.057345   0.000000 3
Si   -45.806467   418.687293     0.000000   0.356183   0.102635   0.000000 3
Si   -43.077045   416.794194     1.920113   0.370155   0.129649   0.000000 3
Si   -43.122445   420.653371     1.920113   0.324755   0.148600   0.000000 3
Si   -44.453375   418.705089     1.920113   0.351550   0.120431   0.000000 3
Si   -40.394874   418.767282     0.000000   0.336876   0.182624   0.000000 3
Si   -37.666336   416.888885     1.920113   0.349964   0.224341   0.000000 3
Si   -37.710670   420.742567     1.920113   0.305630   0.237796   0.000000 3
Si   -39.042095   418.791045     1.920113   0.331930   0.206387   0.000000 3
Si   -34.982875   418.871406     0.000000   0.317975   0.286748   0.000000 3
Si   -32.253020   417.010316     1.920113   0.332380   0.345772   0.000000 3
Si   -32.295903   420.852872     1.920113   0.289497   0.348101   0.000000 3
Si   -33.629225   418.901078     1.920113   0.313900   0.316420   0.000000 3
Si   -29.565373   418.997539     0.000000   0.304577   0.412882   0.000000 3
Si   -26.830921   417.153402     1.920113   0.323579   0.488857   0.000000 3
Si   -26.873736   420.979747     1.920113   0.280764   0.474976   0.000000 3
Si   -28.209543   419.031736     1.920113   0.302682   0.447078   0.000000 3
Si   -24.137723   415.297899     0.000000   0.301327  -3.286759   0.000000 3
Si   -21.395892   413.466461     1.920113   0.327708  -3.198084   0.000000 3
Si   -21.441325   417.274404     1.920113   0.282275  -3.230367   0.000000 3
Si   -22.778944   415.334003     1.920113   0.302381  -3.250654   0.000000 3
Si   -18.698301   415.441652     0.000000   0.309849  -3.143006   0.000000 3
Si   -15.948566   413.616365     1.920113   0.344134  -3.048179   0.000000 3
Si   -15.998842   417.407329     1.920113   0.293858  -3.097442   0.000000 3
Si   -17.336801   415.476760     1.920113   0.313624  -3.107897   0.000000 3
Si   -13.249312   415.577944     0.000000   0.327938  -3.006714   0.000000 3
Si   -10.493494   413.753230     1.920113   0.368306  -2.911315   0.000000 3
Si   -10.548895   417.530256     1.920113   0.312905  -2.974515   0.000000 3
Si   -11.886039   415.609993     1.920113   0.333486  -2.974665   0.000000 3
Si    -7.794649   415.700314     0.000000   0.351701  -2.884344   0.000000 3
Si    -5.035081   413.873600     1.920113   0.395819  -2.790944   0.000000 3
Si    -5.094175   417.638263     1.920113   0.336725  -2.866508   0.000000 3
Si    -6.430432   415.728366     1.920113   0.358193  -2.856292   0.000000 3
Si    -2.336546   415.805804     0.000000   0.378904  -2.778854   0.000000 3
Si     0.426170   413.976476     1.920113   0.426170  -2.688069   0.000000 3
Si     0.364705   417.727176     1.920113   0.364705  -2.777595   0.000000 3
Si    -0.971410   415.829154     1.920113   0.386315  -2.755504   0.000000 3
Si   -52.672840   428.259751     0.000000   0.278435   0.074528   0.000000 3
Si   -52.705144   432.112652     0.000000   0.246131   0.087202   0.000000 3
Si   -55.397606   430.165651     1.920113   0.269119   0.060315   0.000000 3
Si   -51.335558   430.198031     0.000000   0.257992   0.092694   0.000000 3
Si   -47.258149   428.311642     0.000000   0.262226   0.126419   0.000000 3
Si   -47.290097   432.162824     0.000000   0.230278   0.137375   0.000000 3
Si   -49.981811   430.210386     1.920113   0.254014   0.105049   0.000000 3
Si   -45.921085   430.252419     0.000000   0.241565   0.147083   0.000000 3
Si   -41.844581   428.378078     0.000000   0.244894   0.192855   0.000000 3
Si   -41.875561   432.225435     0.000000   0.213914   0.199986   0.000000 3
Si   -44.567596   430.268127     1.920113   0.237329   0.162790   0.000000 3
Si   -40.506951   430.320378     0.000000   0.224799   0.215042   0.000000 3
Si   -36.429943   428.459227     0.000000   0.228632   0.274003   0.000000 3
Si   -36.459676   432.300235     0.000000   0.198899   0.274785   0.000000 3
Si   -39.153228   430.339471     1.920113   0.220797   0.234135   0.000000 3
Si   -35.091020   430.401451     0.000000   0.209830   0.296115   0.000000 3
Si   -31.011633   428.553309     0.000000   0.216042   0.368086   0.000000 3
Si   -31.040361   432.385454     0.000000   0.187314   0.360004   0.000000 3
Si   -33.736481   430.423547     1.920113   0.206644   0.318210   0.000000 3
Si   -29.670975   430.493385     0.000000   0.198975   0.388049   0.000000 3
Si   -25.587320   428.656365     0.000000   0.209455   0.471142   0.000000 3
Si   -25.615781   432.477705     0.000000   0.180994   0.452255   0.000000 3
Si   -28.315081   430.517621     1.920113   0.197144   0.412284   0.000000 3
Si   -24.244923   426.751866     0.000000   0.194127  -3.353471   0.000000 3
Si   -20.155680   424.922502     0.000000   0.210195  -3.262722   0.000000 3
Si   -20.184828   428.732086     0.000000   0.181047  -3.293364   0.000000 3
Si   -22.887337   426.776987     1.920113   0.193988  -3.328350   0.000000 3
Si   -18.811927   426.851975     0.000000   0.196223  -3.253361   0.000000 3
Si   -14.716709   425.025893     0.000000   0.218266  -3.159330   0.000000 3
Si   -14.747307   428.823751     0.000000   0.187668  -3.201699   0.000000 3
Si   -17.452589   426.876543     1.920113   0.197836  -3.228794   0.000000 3
Si   -13.372116   426.947715     0.000000   0.205134  -3.157621   0.000000 3
Si    -9.271322   425.120377     0.000000   0.232753  -3.064847   0.000000 3
Si    -9.303734   428.907117     0.000000   0.200341  -3.118333   0.000000 3
Si   -12.011185   426.970309     1.920113   0.208340  -3.135027   0.000000 3
Si    -7.926289   427.033507     0.000000   0.220061  -3.071829   0.000000 3
Si    -3.820591   425.200392     0.000000   0.252584  -2.984831   0.000000 3
Si    -3.854945   428.976808     0.000000   0.218230  -3.048642   0.000000 3
Si    -6.564002   427.052760     1.920113   0.224623  -3.052577   0.000000 3
Si    -2.475378   427.103786     0.000000   0.240072  -3.001551   0.000000 3
Si    -1.111963   427.118212     1.920113   0.245762  -2.987124   0.000000 3
Si   -53.991090   424.393820     1.920113   0.317910   0.048822   0.000000 3
Si   -54.026875   428.248901     1.920113   0.282125   0.063678   0.000000 3
Si   -55.363729   426.311574     1.920113   0.302996   0.046464   0.000000 3
Si   -51.301444   426.344233     0.000000   0.292106   0.079122   0.000000 3
Si   -48.575608   424.442902     1.920113   0.302492   0.097905   0.000000 3
Si   -48.611647   428.297346     1.920113   0.266453   0.112123   0.000000 3
Si   -49.947718   426.356883     1.920113   0.288107   0.091773   0.000000 3
Si   -45.887349   426.400566     0.000000   0.275301   0.135456   0.000000 3
Si   -43.162553   424.508482     1.920113   0.284647   0.163485   0.000000 3
Si   -43.197977   428.360068     1.920113   0.249223   0.174845   0.000000 3
Si   -44.534067   426.417115     1.920113   0.270858   0.152005   0.000000 3
Si   -40.474244   426.472897     0.000000   0.257506   0.207787   0.000000 3
Si   -37.749619   424.591865     1.920113   0.266681   0.246868   0.000000 3
Si   -37.783843   428.437619     1.920113   0.232457   0.252395   0.000000 3
Si   -39.120836   426.493525     1.920113   0.253189   0.228414   0.000000 3
Si   -35.059564   426.561210     0.000000   0.241286   0.296099   0.000000 3
Si   -32.333616   424.692107     1.920113   0.251784   0.347110   0.000000 3
Si   -32.366695   428.528756     1.920113   0.218705   0.343532   0.000000 3
Si   -33.705299   426.585564     1.920113   0.237826   0.320454   0.000000 3
Si   -29.640358   426.663126     0.000000   0.229592   0.398016   0.000000 3
Si   -26.911297   424.805256     1.920113   0.243203   0.460259   0.000000 3
Si   -26.944056   428.630050     1.920113   0.210444   0.444827   0.000000 3
Si   -28.284537   426.690204     1.920113   0.227688   0.425093   0.000000 3
Si   -24.214182   422.933514     0.000000   0.224868  -3.331596   0.000000 3
Si   -21.480570   421.084449     1.920113   0.243030  -3.260548   0.000000 3
Si   -21.514299   424.895945     1.920113   0.209301  -3.289278   0.000000 3
Si   -22.856387   422.961768     1.920113   0.224938  -3.303342   0.000000 3
Si   -18.779971   423.046219     0.000000   0.228179  -3.218891   0.000000 3
Si   -16.041299   421.202424     1.920113   0.251401  -3.142573   0.000000 3
Si   -16.077097   425.000659     1.920113   0.215603  -3.184564   0.000000 3
Si   -17.420194   423.073907     1.920113   0.230231  -3.191203   0.000000 3
Si   -13.338223   423.154189     0.000000   0.239027  -3.110921   0.000000 3
Si   -10.594922   421.312038     1.920113   0.266878  -3.032960   0.000000 3
Si   -10.633208   425.097895     1.920113   0.228592  -3.087328   0.000000 3
Si   -11.976763   423.179720     1.920113   0.242762  -3.085391   0.000000 3
Si    -7.890276   423.251426     0.000000   0.256074  -3.013684   0.000000 3
Si    -5.143112   421.407763     1.920113   0.287788  -2.937234   0.000000 3
Si    -5.183727   425.182060     1.920113   0.247173  -3.003163   0.000000 3
Si    -6.527467   423.273423     1.920113   0.261158  -2.991687   0.000000 3
Si    -2.437255   423.332423     0.000000   0.278195  -2.932687   0.000000 3
Si     0.313382   421.484029     1.920113   0.313382  -2.860968   0.000000 3
Si     0.270471   425.247230     1.920113   0.270471  -2.937993   0.000000 3
Si    -1.073278   423.349406     1.920113   0.284447  -2.915704   0.000000 3
Si   -52.734098   435.963457     0.000000   0.217177   0.097782   0.000000 3
Si   -52.759985   439.812291     0.000000   0.191290   0.106389   0.000000 3
Si   -55.455762   437.868303     1.920113   0.210963   0.082515   0.000000 3
Si   -51.393338   437.898913     0.000000   0.200212   0.113124   0.000000 3
Si   -47.318434   436.011498     0.000000   0.201941   0.145822   0.000000 3
Si   -47.343534   439.857928     0.000000   0.176841   0.152026   0.000000 3
Si   -50.039321   437.910319     1.920113   0.196504   0.124530   0.000000 3
Si   -45.977391   437.948236     0.000000   0.185259   0.162447   0.000000 3
Si   -41.902831   436.070163     0.000000   0.186644   0.204487   0.000000 3
Si   -41.926809   439.912632     0.000000   0.162666   0.206730   0.000000 3
Si   -44.623388   437.962106     1.920113   0.181537   0.176317   0.000000 3
Si   -40.560982   438.007319     0.000000   0.170768   0.221530   0.000000 3
Si   -36.485710   436.138952     0.000000   0.172865   0.273276   0.000000 3
Si   -36.508467   439.975757     0.000000   0.150108   0.269855   0.000000 3
Si   -39.206635   438.023539     1.920113   0.167390   0.237750   0.000000 3
Si   -35.142611   438.075323     0.000000   0.158239   0.289534   0.000000 3
Si   -31.065374   436.216161     0.000000   0.162301   0.350485   0.000000 3
Si   -31.087104   440.045688     0.000000   0.140571   0.339786   0.000000 3
Si   -33.787529   438.093515     1.920113   0.155596   0.307726   0.000000 3
Si   -29.720759   438.150311     0.000000   0.149191   0.364523   0.000000 3
Si   -25.640343   436.298850     0.000000   0.156432   0.433174   0.000000 3
Si   -25.661503   440.119841     0.000000   0.135272   0.413939   0.000000 3
Si   -28.364596   438.169818     1.920113   0.147629   0.384029   0.000000 3
Si   -24.294181   434.389048     0.000000   0.144869  -3.396740   0.000000 3
Si   -20.209671   432.542834     0.000000   0.156204  -3.322842   0.000000 3
Si   -20.230852   436.354581     0.000000   0.135023  -3.351321   0.000000 3
Si   -22.936699   434.408973     1.920113   0.144626  -3.376816   0.000000 3
Si   -18.862143   434.468144     0.000000   0.146007  -3.317645   0.000000 3
Si   -14.773079   432.624012     0.000000   0.161896  -3.241664   0.000000 3
Si   -14.794856   436.426401     0.000000   0.140119  -3.279500   0.000000 3
Si   -17.503250   434.487436     1.920113   0.147175  -3.298353   0.000000 3
Si   -13.424495   434.543035     0.000000   0.152755  -3.242754   0.000000 3
Si    -9.330873   432.697357     0.000000   0.173202  -3.168319   0.000000 3
Si    -9.353722   436.490811     0.000000   0.150353  -3.215091   0.000000 3
Si   -12.064239   434.560570     1.920113   0.155286  -3.225219   0.000000 3
Si    -7.981600   434.609145     0.000000   0.164750  -3.176643   0.000000 3
Si    -3.883770   432.757899     0.000000   0.189405  -3.107777   0.000000 3
Si    -3.908104   436.543344     0.000000   0.165071  -3.162558   0.000000 3
Si    -6.620139   434.623747     1.920113   0.168486  -3.162042   0.000000 3
Si    -2.534245   434.661692     0.000000   0.181205  -3.124097   0.000000 3
Si    -1.171846   434.672122     1.920113   0.185879  -3.113666   0.000000 3
Si   -54.059157   432.101971     1.920113   0.249843   0.076521   0.000000 3
Si   -54.088177   435.953073     1.920113   0.220823   0.087398   0.000000 3
Si   -55.428211   434.017883     1.920113   0.238514   0.072320   0.000000 3
Si   -51.366086   434.049541     0.000000   0.227464   0.103978   0.000000 3
Si   -48.643748   432.149134     1.920113   0.234352   0.123684   0.000000 3
Si   -48.672290   435.998496     1.920113   0.205810   0.132820   0.000000 3
Si   -50.012232   434.061467     1.920113   0.223593   0.115905   0.000000 3
Si   -45.950964   434.101538     0.000000   0.211686   0.155975   0.000000 3
Si   -43.229242   432.208607     1.920113   0.217958   0.183158   0.000000 3
Si   -43.256808   436.054510     1.920113   0.190392   0.188834   0.000000 3
Si   -44.597229   434.116341     1.920113   0.207696   0.170778   0.000000 3
Si   -40.535715   434.165044     0.000000   0.196035   0.219482   0.000000 3
Si   -37.813888   432.280459     1.920113   0.202412   0.255010   0.000000 3
Si   -37.840226   436.120876     1.920113   0.176074   0.255200   0.000000 3
Si   -39.181679   434.182665     1.920113   0.192346   0.237103   0.000000 3
Si   -35.118555   434.239354     0.000000   0.182295   0.293792   0.000000 3
Si   -32.395621   432.363330     1.920113   0.189779   0.337880   0.000000 3
Si   -32.420847   436.196209     1.920113   0.164553   0.330533   0.000000 3
Si   -33.763744   434.259406     1.920113   0.179381   0.313843   0.000000 3
Si   -29.697625   434.322371     0.000000   0.172325   0.376808   0.000000 3
Si   -26.972496   432.454223     1.920113   0.182004   0.428773   0.000000 3
Si   -26.997104   436.277867     1.920113   0.157396   0.412191   0.000000 3
Si   -28.341613   434.344104     1.920113   0.170612   0.398542   0.000000 3
Si   -24.271409   430.570391     0.000000   0.167641  -3.375171   0.000000 3
Si   -21.543190   428.708499     1.920113   0.180410  -3.316951   0.000000 3
Si   -21.567895   432.521882     1.920113   0.155705  -3.343794   0.000000 3
Si   -22.913914   430.592757     1.920113   0.167411  -3.352805   0.000000 3
Si   -18.839073   430.659372     0.000000   0.169077  -3.286191   0.000000 3
Si   -16.107283   428.801405     1.920113   0.185417  -3.224044   0.000000 3
Si   -16.132773   432.604262     1.920113   0.159927  -3.261414   0.000000 3
Si   -17.480010   430.681152     1.920113   0.170415  -3.264411   0.000000 3
Si   -13.400552   430.744109     0.000000   0.176698  -3.201454   0.000000 3
Si   -10.665151   428.887344     1.920113   0.196649  -3.138106   0.000000 3
Si   -10.691917   432.680023     1.920113   0.169883  -3.185653   0.000000 3
Si   -12.040007   430.764036     1.920113   0.179518  -3.181527   0.000000 3
Si    -7.956357   430.819511     0.000000   0.189993  -3.126051   0.000000 3
Si    -5.217580   428.960974     1.920113   0.213320  -3.064475   0.000000 3
Si    -5.245952   432.744247     1.920113   0.184948  -3.121429   0.000000 3
Si    -6.594513   430.836296     1.920113   0.194112  -3.109267   0.000000 3
Si    -2.507323   430.880316     0.000000   0.208127  -3.065246   0.000000 3
Si     0.234468   429.016591     1.920113   0.234468  -3.008859   0.000000 3
Si     0.204115   432.791724     1.920113   0.204115  -3.073952   0.000000 3
Si    -1.144437   430.892575     1.920113   0.213288  -3.052988   0.000000 3
Si   -52.783084   443.659295     0.000000   0.168191   0.113167   0.000000 3
Si   -52.803663   447.504617     0.000000   0.147612   0.118262   0.000000 3
Si   -55.502650   445.564029     1.920113   0.164075   0.097788   0.000000 3
Si   -51.439221   445.591908     0.000000   0.154329   0.125667   0.000000 3
Si   -47.365737   443.702360     0.000000   0.154638   0.156232   0.000000 3
Si   -47.385358   447.545017     0.000000   0.135017   0.158663   0.000000 3
Si   -50.084777   445.602115     1.920113   0.151048   0.135873   0.000000 3
Si   -46.021341   445.635467     0.000000   0.141309   0.169226   0.000000 3
Si   -41.947871   443.753157     0.000000   0.141604   0.207029   0.000000 3
Si   -41.966355   447.592005     0.000000   0.123120   0.205650   0.000000 3
Si   -44.666775   445.647476     1.920113   0.138150   0.181235   0.000000 3
Si   -40.602586   445.686038     0.000000   0.129164   0.219797   0.000000 3
Si   -36.528335   443.810958     0.000000   0.130240   0.264830   0.000000 3
Si   -36.545665   447.644813     0.000000   0.112910   0.258459   0.000000 3
Si   -39.247635   445.699683     1.920113   0.126390   0.233442   0.000000 3
Si   -35.181875   445.742697     0.000000   0.118975   0.276456   0.000000 3
Si   -31.105956   443.874250     0.000000   0.121719   0.328122   0.000000 3
Si   -31.122300   447.702034     0.000000   0.105375   0.315679   0.000000 3
Si   -33.826266   445.757636     1.920113   0.116859   0.291395   0.000000 3
Si   -29.758155   445.803806     0.000000   0.111795   0.337564   0.000000 3
Si   -25.679721   443.940741     0.000000   0.117054   0.394612   0.000000 3
Si   -25.695412   447.761622     0.000000   0.101363   0.375267   0.000000 3
Si   -28.401647   445.819518     1.920113   0.110578   0.353277   0.000000 3
Si   -24.330560   442.026807     0.000000   0.108490  -3.439434   0.000000 3
Si   -20.248938   440.167234     0.000000   0.116937  -3.378894   0.000000 3
Si   -20.264417   443.980746     0.000000   0.101458  -3.405608   0.000000 3
Si   -22.972983   442.042614     1.920113   0.108342  -3.423628   0.000000 3
Si   -18.898541   442.089243     0.000000   0.109609  -3.376998   0.000000 3
Si   -14.813333   440.230725     0.000000   0.121642  -3.315403   0.000000 3
Si   -14.829081   444.036834     0.000000   0.105894  -3.349521   0.000000 3
Si   -17.539818   442.104346     1.920113   0.110607  -3.361895   0.000000 3
Si   -13.461946   442.147567     0.000000   0.115304  -3.318674   0.000000 3
Si    -9.373073   440.287224     0.000000   0.131002  -3.258904   0.000000 3
Si    -9.389563   444.086361     0.000000   0.114512  -3.299993   0.000000 3
Si   -12.102104   442.161091     1.920113   0.117421  -3.305151   0.000000 3
Si    -8.021043   442.198203     0.000000   0.125307  -3.268039   0.000000 3
Si    -3.928777   440.332794     0.000000   0.144398  -3.213335   0.000000 3
Si    -3.946451   444.125901     0.000000   0.126724  -3.260454   0.000000 3
Si    -6.660218   442.209229     1.920113   0.128407  -3.257013   0.000000 3
Si    -2.576551   442.237454     0.000000   0.138899  -3.228788   0.000000 3
Si    -1.215000   442.245055     1.920113   0.142725  -3.221187   0.000000 3
Si   -54.114191   439.802298     1.920113   0.194809   0.096396   0.000000 3
Si   -54.137460   443.649758     1.920113   0.171540   0.103630   0.000000 3
Si   -55.480495   441.716986     1.920113   0.186230   0.090971   0.000000 3
Si   -51.417620   441.746312     0.000000   0.175930   0.120297   0.000000 3
Si   -48.697624   439.845663     1.920113   0.180476   0.139761   0.000000 3
Si   -48.720080   443.690857     1.920113   0.158020   0.144729   0.000000 3
Si   -50.063401   441.757137     1.920113   0.172424   0.131122   0.000000 3
Si   -46.000738   441.792795     0.000000   0.161912   0.166780   0.000000 3
Si   -43.281087   439.898127     1.920113   0.166113   0.192225   0.000000 3
Si   -43.302447   443.739760     1.920113   0.144753   0.193632   0.000000 3
Si   -44.646455   441.805729     1.920113   0.158470   0.179713   0.000000 3
Si   -40.583152   441.847552     0.000000   0.148598   0.221537   0.000000 3
Si   -37.863282   439.959256     1.920113   0.153018   0.253354   0.000000 3
Si   -37.883441   443.795919     1.920113   0.132859   0.249790   0.000000 3
Si   -39.228499   441.862447     1.920113   0.145526   0.236432   0.000000 3
Si   -35.163593   441.909681     0.000000   0.137257   0.283666   0.000000 3
Si   -32.442800   440.027691     1.920113   0.142600   0.321789   0.000000 3
Si   -32.461877   443.858023     1.920113   0.123523   0.311895   0.000000 3
Si   -33.808244   441.926176     1.920113   0.134881   0.300160   0.000000 3
Si   -29.740803   441.977399     0.000000   0.129147   0.351384   0.000000 3
Si   -27.018353   440.101082     1.920113   0.136147   0.395180   0.000000 3
Si   -27.036686   443.923971     1.920113   0.117814   0.377843   0.000000 3
Si   -28.384471   441.994910     1.920113   0.127754   0.368894   0.000000 3
Si   -24.313746   438.207843     0.000000   0.125304  -3.418173   0.000000 3
Si   -21.589014   436.335973     1.920113   0.134586  -3.369929   0.000000 3
Si   -21.607083   440.150716     1.920113   0.116517  -3.395412   0.000000 3
Si   -22.956229   438.225592     1.920113   0.125096  -3.400423   0.000000 3
Si   -18.881781   438.278133     0.000000   0.126369  -3.347882   0.000000 3
Si   -16.154353   436.408971     1.920113   0.138347  -3.296931   0.000000 3
Si   -16.172685   440.215357     1.920113   0.120015  -3.330771   0.000000 3
Si   -17.522993   438.295208     1.920113   0.127432  -3.330807   0.000000 3
Si   -13.444741   438.344251     0.000000   0.132509  -3.281764   0.000000 3
Si   -10.714459   436.475645     1.920113   0.147341  -3.230257   0.000000 3
Si   -10.733549   440.273968     1.920113   0.128251  -3.272160   0.000000 3
Si   -12.084713   438.359657     1.920113   0.134812  -3.266358   0.000000 3
Si    -8.002922   438.402131     0.000000   0.143428  -3.223884   0.000000 3
Si    -5.269876   436.531576     1.920113   0.161024  -3.174326   0.000000 3
Si    -5.290177   440.322645     1.920113   0.140723  -3.223483   0.000000 3
Si    -6.641797   438.414821     1.920113   0.146828  -3.211194   0.000000 3
Si    -2.557073   438.447534     0.000000   0.158377  -3.178481   0.000000 3
Si     0.178383   436.572155     1.920113   0.178383  -3.133747   0.000000 3
Si     0.156441   440.357390     1.920113   0.156441  -3.188738   0.000000 3
Si    -1.195119   438.456428     1.920113   0.162606  -3.169587   0.000000 3
Si   -52.821974   451.348402     0.000000   0.129301   0.121822   0.000000 3
Si   -52.838251   455.190795     0.000000   0.113024   0.123988   0.000000 3
Si   -55.540150   453.253643     1.920113   0.126575   0.106950   0.000000 3
Si   -51.475447   453.278345     0.000000   0.118103   0.131652   0.000000 3
Si   -47.402683   451.386104     0.000000   0.117692   0.159524   0.000000 3
Si   -47.417973   455.225806     0.000000   0.102402   0.158999   0.000000 3
Si   -50.120521   453.287266     1.920113   0.115304   0.140573   0.000000 3
Si   -46.055515   453.316037     0.000000   0.107135   0.169343   0.000000 3
Si   -41.982568   451.429409     0.000000   0.106907   0.202828   0.000000 3
Si   -41.996785   455.265574     0.000000   0.092690   0.198767   0.000000 3
Si   -44.700397   453.326269     1.920113   0.104528   0.179575   0.000000 3
Si   -40.634517   453.358743     0.000000   0.097233   0.212049   0.000000 3
Si   -36.560776   451.477545     0.000000   0.097799   0.250964   0.000000 3
Si   -36.573953   455.309342     0.000000   0.084622   0.242535   0.000000 3
Si   -39.279007   453.370109     1.920113   0.095018   0.223416   0.000000 3
Si   -35.211658   453.405577     0.000000   0.089192   0.258883   0.000000 3
Si   -31.136471   451.529203     0.000000   0.091204   0.302623   0.000000 3
Si   -31.148768   455.355902     0.000000   0.078907   0.289095   0.000000 3
Si   -33.855562   453.417780     1.920113   0.087563   0.271086   0.000000 3
Si   -29.786189   453.455165     0.000000   0.083761   0.308471   0.000000 3
Si   -25.708944   451.582558     0.000000   0.087831   0.355978   0.000000 3
Si   -25.720635   455.403621     0.000000   0.076140   0.336814   0.000000 3
Si   -28.429338   453.467785     1.920113   0.082887   0.321091   0.000000 3
Si   -24.357503   449.665436     0.000000   0.081547  -3.481258   0.000000 3
Si   -20.277705   447.795091     0.000000   0.088170  -3.431490   0.000000 3
Si   -20.289152   451.610253     0.000000   0.076723  -3.456554   0.000000 3
Si   -22.999779   449.677947     1.920113   0.081546  -3.468747   0.000000 3
Si   -18.925222   449.714602     0.000000   0.082928  -3.432092   0.000000 3
Si   -14.842569   447.844606     0.000000   0.092406  -3.381974   0.000000 3
Si   -14.854181   451.653937     0.000000   0.080794  -3.412870   0.000000 3
Si   -17.566573   449.726392     1.920113   0.083852  -3.420302   0.000000 3
Si   -13.489261   449.759897     0.000000   0.087989  -3.386796   0.000000 3
Si    -9.403701   447.888005     0.000000   0.100374  -3.338575   0.000000 3
Si    -9.415894   451.691955     0.000000   0.088181  -3.374852   0.000000 3
Si   -12.129718   449.770302     1.920113   0.089807  -3.376392   0.000000 3
Si    -8.049880   449.798616     0.000000   0.096470  -3.348077   0.000000 3
Si    -3.961657   447.922331     0.000000   0.111518  -3.304250   0.000000 3
Si    -3.974818   451.721772     0.000000   0.098357  -3.345035   0.000000 3
Si    -6.689566   449.806947     1.920113   0.099059  -3.339747   0.000000 3
Si    -2.607720   449.828028     0.000000   0.107730  -3.318665   0.000000 3
Si    -1.246860   449.833620     1.920113   0.110865  -3.313074   0.000000 3
Si   -54.158236   447.495581     1.920113   0.150764   0.109226   0.000000 3
Si   -54.176761   451.339897     1.920113   0.132239   0.113316   0.000000 3
Si   -55.522460   449.409543     1.920113   0.144265   0.103075   0.000000 3
Si   -51.458413   449.435866     0.000000   0.135137   0.129398   0.000000 3
Si   -48.739963   447.534284     1.920113   0.138137   0.147929   0.000000 3
Si   -48.757551   451.376135     1.920113   0.120549   0.149555   0.000000 3
Si   -50.103730   449.445434     1.920113   0.132095   0.138966   0.000000 3
Si   -46.039507   449.476480     0.000000   0.123143   0.170013   0.000000 3
Si   -43.321224   447.579672     1.920113   0.125976   0.193318   0.000000 3
Si   -43.337720   451.418092     1.920113   0.109480   0.191511   0.000000 3
Si   -44.684661   449.487587     1.920113   0.120264   0.181119   0.000000 3
Si   -40.619610   449.523029     0.000000   0.112140   0.216561   0.000000 3
Si   -37.901051   447.631130     1.920113   0.115249   0.244776   0.000000 3
Si   -37.916428   451.465119     1.920113   0.099872   0.238538   0.000000 3
Si   -39.264372   449.535498     1.920113   0.109653   0.229031   0.000000 3
Si   -35.197795   449.574597     0.000000   0.103055   0.268130   0.000000 3
Si   -32.478442   447.687415     1.920113   0.106958   0.301060   0.000000 3
Si   -32.492825   451.516048     1.920113   0.092575   0.289467   0.000000 3
Si   -33.841936   449.588110     1.920113   0.101189   0.281642   0.000000 3
Si   -29.773177   449.629682     0.000000   0.096773   0.323215   0.000000 3
Si   -27.052502   447.746637     1.920113   0.101998   0.360283   0.000000 3
Si   -27.066159   451.569179     1.920113   0.088341   0.342599   0.000000 3
Si   -28.416494   449.643772     1.920113   0.095731   0.337304   0.000000 3
Si   -24.345028   445.845988     0.000000   0.094022  -3.460480   0.000000 3
Si   -21.622570   443.966091     1.920113   0.101030  -3.420263   0.000000 3
Si   -21.635879   447.782097     1.920113   0.087721  -3.444483   0.000000 3
Si   -22.987379   445.860056     1.920113   0.093946  -3.446411   0.000000 3
Si   -18.912891   445.901414     0.000000   0.095259  -3.405054   0.000000 3
Si   -16.188320   444.023295     1.920113   0.104380  -3.363059   0.000000 3
Si   -16.201716   447.832686     1.920113   0.090984  -3.393894   0.000000 3
Si   -17.554210   445.914762     1.920113   0.096215  -3.391705   0.000000 3
Si   -13.476642   445.952828     0.000000   0.100608  -3.353640   0.000000 3
Si   -10.749810   444.074781     1.920113   0.111990  -3.311573   0.000000 3
Si   -10.763744   447.877891     1.920113   0.098056  -3.348690   0.000000 3
Si   -12.116959   445.964692     1.920113   0.102566  -3.341775   0.000000 3
Si    -8.036542   445.997110     0.000000   0.109808  -3.309358   0.000000 3
Si    -5.307517   444.117140     1.920113   0.123383  -3.269214   0.000000 3
Si    -5.322419   447.914760     1.920113   0.108481  -3.311820   0.000000 3
Si    -6.675986   446.006692     1.920113   0.112639  -3.299776   0.000000 3
Si    -2.593275   446.031071     0.000000   0.122175  -3.275397   0.000000 3
Si     0.137619   444.146949     1.920113   0.137619  -3.239405   0.000000 3
Si     0.121379   447.940386     1.920113   0.121379  -3.286195   0.000000 3
Si    -1.232087   446.037582     1.920113   0.125638  -3.268885   0.000000 3
Si   -52.852710   459.031931     0.000000   0.098565   0.124898   0.000000 3
Si   -52.865549     2.044794     0.000000   0.085726   0.124680   0.000000 1
Si   -55.569992     0.110925     1.920113   0.096733   0.110925   0.000000 1
Si   -51.503950     0.132313     0.000000   0.089600   0.132313   0.000000 1
Si   -47.431463   459.064289     0.000000   0.088912   0.157256   0.000000 3
Si   -47.443365     2.074559     0.000000   0.077010   0.154446   0.000000 1
Si   -50.148546     0.139954     1.920113   0.087279   0.139954   0.000000 1
Si   -46.082040     0.164342     0.000000   0.080610   0.164342   0.000000 1
Si   -42.009254   459.100679     0.000000   0.080221   0.193646   0.000000 3
Si   -42.020193     2.107735     0.000000   0.069282   0.187622   0.000000 1
Si   -44.726410     0.172931     1.920113   0.078515   0.172931   0.000000 1
Si   -40.659006     0.199933     0.000000   0.072744   0.199933   0.000000 1
Si   -36.585450   459.140370     0.000000   0.073125   0.233337   0.000000 3
Si   -36.595490     2.143628     0.000000   0.063085   0.223514   0.000000 1
Si   -39.303002     0.209301     1.920113   0.071023   0.209301   0.000000 1
Si   -35.234263     0.238286     0.000000   0.066587   0.238286   0.000000 1
Si   -31.159451   459.182255     0.000000   0.068224   0.275222   0.000000 3
Si   -31.168748     2.181224     0.000000   0.058927   0.261111   0.000000 1
Si   -33.877746     0.248178     1.920113   0.065379   0.248178   0.000000 1
Si   -29.807278     0.278260     0.000000   0.062672   0.278260   0.000000 1
Si   -25.730760   459.224872     0.000000   0.066015   0.317839   0.000000 3
Si   -25.739553     2.219221     0.000000   0.057222   0.299108   0.000000 1
Si   -28.450129     0.288343     1.920113   0.062096   0.288343   0.000000 1
Si   -24.377632   457.305319     0.000000   0.061418  -3.521827   0.000000 3
Si   -20.299050   455.426219     0.000000   0.066825  -3.480814   0.000000 3
Si   -20.307645   459.242975     0.000000   0.058230  -3.504284   0.000000 3
Si   -23.019772   457.315181     1.920113   0.061553  -3.511965   0.000000 3
Si   -18.945082   457.343893     0.000000   0.063068  -3.483254   0.000000 3
Si   -14.864227   455.464729     0.000000   0.070748  -3.442304   0.000000 3
Si   -14.872965   459.276893     0.000000   0.062010  -3.470367   0.000000 3
Si   -17.586484   457.353069     1.920113   0.063941  -3.474077   0.000000 3
Si   -13.509614   457.378979     0.000000   0.067636  -3.448167   0.000000 3
Si    -9.426472   455.498023     0.000000   0.077603  -3.409010   0.000000 3
Si    -9.435699   459.306037     0.000000   0.068376  -3.441222   0.000000 3
Si   -12.150314   457.386972     1.920113   0.069211  -3.440174   0.000000 3
Si    -8.071482   457.408568     0.000000   0.074868  -3.418578   0.000000 3
Si    -3.986275   455.523937     0.000000   0.086900  -3.383096   0.000000 3
Si    -3.996304   459.328566     0.000000   0.076871  -3.418693   0.000000 3
Si    -6.711589   457.414873     1.920113   0.077036  -3.412273   0.000000 3
Si    -2.631235   457.430685     0.000000   0.084215  -3.396462   0.000000 3
Si    -1.270936   457.434830     1.920113   0.086789  -3.392316   0.000000 3
Si   -54.193260   455.182836     1.920113   0.115740   0.116029   0.000000 3
Si   -54.207943   459.024525     1.920113   0.101057   0.117492   0.000000 3
Si   -55.555928   457.096448     1.920113   0.110797   0.109528   0.000000 3
Si   -51.490555   457.119496     0.000000   0.102995   0.132576   0.000000 3
Si   -48.773100   455.216587     1.920113   0.105000   0.149780   0.000000 3
Si   -48.786840   459.055801     1.920113   0.091260   0.148768   0.000000 3
Si   -50.135388   457.127773     1.920113   0.100437   0.140853   0.000000 3
Si   -46.069618   457.154318     0.000000   0.093032   0.167398   0.000000 3
Si   -43.352208   455.255221     1.920113   0.094992   0.188414   0.000000 3
Si   -43.364931   459.091238     1.920113   0.082269   0.184205   0.000000 3
Si   -44.714237   457.163710     1.920113   0.090688   0.176790   0.000000 3
Si   -40.647571   457.193371     0.000000   0.084179   0.206451   0.000000 3
Si   -37.929855   455.298082     1.920113   0.086445   0.231275   0.000000 3
Si   -37.941585   459.130191     1.920113   0.074715   0.223158   0.000000 3
Si   -39.291806   457.203704     1.920113   0.082219   0.216784   0.000000 3
Si   -35.223734   457.235806     0.000000   0.077116   0.248886   0.000000 3
Si   -32.505320   455.344081     1.920113   0.080080   0.277274   0.000000 3
Si   -32.516186   459.171650     1.920113   0.069214   0.264617   0.000000 3
Si   -33.867418   457.246805     1.920113   0.075707   0.259885   0.000000 3
Si   -29.797474   457.280371     0.000000   0.072476   0.293452   0.000000 3
Si   -27.077970   455.391688     1.920113   0.076530   0.324881   0.000000 3
Si   -27.088206   459.214242     1.920113   0.066294   0.307209   0.000000 3
Si   -28.440467   457.291661     1.920113   0.071758   0.304741   0.000000 3
Si   -24.368285   453.485199     0.000000   0.070765  -3.501721   0.000000 3
Si   -21.647349   451.598742     1.920113   0.076251  -3.468065   0.000000 3
Si   -21.657270   455.416031     1.920113   0.066330  -3.491002   0.000000 3
Si   -23.010489   453.496314     1.920113   0.070836  -3.490606   0.000000 3
Si   -18.935862   453.528772     0.000000   0.072288  -3.458148   0.000000 3
Si   -16.213247   451.643448     1.920113   0.079453  -3.423359   0.000000 3
Si   -16.223220   455.455505     1.920113   0.069480  -3.451528   0.000000 3
Si   -17.577239   453.539178     1.920113   0.073186  -3.447742   0.000000 3
Si   -13.500157   453.568652     0.000000   0.077093  -3.418267   0.000000 3
Si   -10.775754   451.683121     1.920113   0.086046  -3.383686   0.000000 3
Si   -10.786164   455.490308     1.920113   0.075636  -3.416725   0.000000 3
Si   -12.140741   453.577774     1.920113   0.078784  -3.409146   0.000000 3
Si    -8.061427   453.602503     0.000000   0.084923  -3.384416   0.000000 3
Si    -5.335305   451.715222     1.920113   0.095595  -3.351585   0.000000 3
Si    -5.346513   455.518265     1.920113   0.084387  -3.388768   0.000000 3
Si    -6.701334   453.609750     1.920113   0.087291  -3.377170   0.000000 3
Si    -2.620270   453.627999     0.000000   0.095180  -3.358921   0.000000 3
Si     0.107287   451.737292     1.920113   0.107287  -3.329514   0.000000 3
Si     0.094991   455.537304     1.920113   0.094991  -3.369729   0.000000 3
Si    -1.259705   453.632810     1.920113   0.098020  -3.354110   0.000000 3
Si   -52.876948     5.883794     0.000000   0.074327   0.123455   0.000000 1
Si   -52.887069     9.721899     0.000000   0.064206   0.121333   0.000000 1
Si   -55.593681     7.791066     1.920113   0.073044   0.110614   0.000000 1
Si   -51.526350     7.809187     0.000000   0.067200   0.128735   0.000000 1
Si   -47.453868     5.911045     0.000000   0.066507   0.150706   0.000000 1
Si   -47.463141     9.746724     0.000000   0.057234   0.146158   0.000000 1
Si   -50.170499     7.815606     1.920113   0.065326   0.135153   0.000000 1
Si   -46.102634     7.835920     0.000000   0.060016   0.155468   0.000000 1
Si   -42.029797     5.941175     0.000000   0.059678   0.180836   0.000000 1
Si   -42.038237     9.773974     0.000000   0.051238   0.173409   0.000000 1
Si   -44.746551     7.843018     1.920113   0.058374   0.162565   0.000000 1
Si   -40.677824     7.865161     0.000000   0.053926   0.184708   0.000000 1
Si   -36.604269     5.973531     0.000000   0.054306   0.213192   0.000000 1
Si   -36.611957     9.803042     0.000000   0.046618   0.202476   0.000000 1
Si   -39.321399     7.872786     1.920113   0.052626   0.192334   0.000000 1
Si   -35.251492     7.896216     0.000000   0.049358   0.215763   0.000000 1
Si   -31.176854     6.007193     0.000000   0.050821   0.246854   0.000000 1
Si   -31.183940     9.833095     0.000000   0.043735   0.232530   0.000000 1
Si   -33.894626     7.904159     1.920113   0.048499   0.223706   0.000000 1
Si   -29.823263     7.928157     0.000000   0.046687   0.247704   0.000000 1
Si   -25.747212     6.041003     0.000000   0.049563   0.280663   0.000000 1
Si   -25.753907     9.863107     0.000000   0.042868   0.262542   0.000000 1
Si   -28.465873     7.936150     1.920113   0.046352   0.255698   0.000000 1
Si   -24.392854     4.119612     0.000000   0.046196  -3.560840   0.000000 1
Si   -20.315137     2.233361     0.000000   0.050738  -3.526978   0.000000 1
Si   -20.321698     6.051650     0.000000   0.044177  -3.548916   0.000000 1
Si   -23.034891     4.127340     1.920113   0.046434  -3.553113   0.000000 1
Si   -18.960123     4.149710     0.000000   0.048027  -3.530742   0.000000 1
Si   -14.880602     2.263198     0.000000   0.054373  -3.497142   0.000000 1
Si   -14.887311     6.077856     0.000000   0.047664  -3.522710   0.000000 1
Si   -17.601577     4.156820     1.920113   0.048848  -3.523633   0.000000 1
Si   -13.525103     4.176784     0.000000   0.052147  -3.503668   0.000000 1
Si    -9.443793     2.288691     0.000000   0.060282  -3.471648   0.000000 1
Si    -9.450928     6.100133     0.000000   0.053147  -3.500433   0.000000 1
Si   -12.166013     4.182908     1.920113   0.053512  -3.497545   0.000000 1
Si    -8.088032     4.199357     0.000000   0.058318  -3.481095   0.000000 1
Si    -4.005129     2.308278     0.000000   0.068046  -3.452062   0.000000 1
Si    -4.012934     6.117154     0.000000   0.060241  -3.483412   0.000000 1
Si    -6.728492     4.204129     1.920113   0.060133  -3.476324   0.000000 1
Si    -2.649367     4.216013     0.000000   0.066083  -3.464440   0.000000 1
Si    -1.289526     4.219102     1.920113   0.068199  -3.461351   0.000000 1
Si   -54.221004     2.037939     1.920113   0.087996   0.117826   0.000000 1
Si   -54.232618     5.877485     1.920113   0.076382   0.117146   0.000000 1
Si   -55.582522     3.951478     1.920113   0.084203   0.111252   0.000000 1
Si   -51.515824     3.971219     0.000000   0.077726   0.130992   0.000000 1
Si   -48.798982     2.066778     1.920113   0.079118   0.146665   0.000000 1
Si   -48.809712     5.903943     1.920113   0.068388   0.143604   0.000000 1
Si   -50.160191     3.978239     1.920113   0.075634   0.138013   0.000000 1
Si   -46.092986     4.000548     0.000000   0.069664   0.160322   0.000000 1
Si   -43.376109     2.099155     1.920113   0.071091   0.179042   0.000000 1
Si   -43.385934     5.933405     1.920113   0.061266   0.173065   0.000000 1
Si   -44.737121     4.008372     1.920113   0.067804   0.168145   0.000000 1
Si   -40.669029     4.032869     0.000000   0.062721   0.192643   0.000000 1
Si   -37.951839     2.134449     1.920113   0.064461   0.214336   0.000000 1
Si   -37.960812     5.965278     1.920113   0.055488   0.204939   0.000000 1
Si   -39.312806     4.041335     1.920113   0.061219   0.201109   0.000000 1
Si   -35.243455     4.067434     0.000000   0.057395   0.227208   0.000000 1
Si   -32.525649     2.171730     1.920113   0.059751   0.251617   0.000000 1
Si   -32.533906     5.998713     1.920113   0.051494   0.238373   0.000000 1
Si   -33.886754     4.076311     1.920113   0.056371   0.236084   0.000000 1
Si   -29.815813     4.103213     0.000000   0.054137   0.262986   0.000000 1
Si   -27.097099     2.209766     1.920113   0.057401   0.289653   0.000000 1
Si   -27.104846     6.032609     1.920113   0.049654   0.272270   0.000000 1
Si   -28.458537     4.112200     1.920113   0.053688   0.271974   0.000000 1
Si   -24.385760     0.298684     0.000000   0.053290  -3.541542   0.000000 1
Si   -21.665883   459.233970     1.920113   0.057717  -3.513290   0.000000 3
Si   -21.673389     2.225412     1.920113   0.050211  -3.534928   0.000000 1
Si   -23.027844     0.307422     1.920113   0.053481  -3.532805   0.000000 1
Si   -18.953107     0.332786     0.000000   0.055043  -3.507441   0.000000 1
Si   -16.231889   459.268788     1.920113   0.060811  -3.478471   0.000000 3
Si   -16.239460     2.256083     1.920113   0.053240  -3.504256   0.000000 1
Si   -17.594534     0.340868     1.920113   0.055891  -3.499358   0.000000 1
Si   -13.517866     0.363626     0.000000   0.059384  -3.476600   0.000000 1
Si   -10.795238   459.299301     1.920113   0.066562  -3.447959   0.000000 3
Si   -10.803190     2.282812     1.920113   0.058610  -3.477527   0.000000 1
Si   -12.158675     0.370625     1.920113   0.060850  -3.469601   0.000000 1
Si    -8.080284     0.389479     0.000000   0.066066  -3.450747   0.000000 1
Si    -5.356317   459.323651     1.920113   0.074583  -3.423609   0.000000 3
Si    -5.364937     2.304016     1.920113   0.065963  -3.456323   0.000000 1
Si    -6.720576     0.394964     1.920113   0.068049  -3.445262   0.000000 1
Si    -2.640865     0.408672     0.000000   0.074585  -3.431555   0.000000 1
Si     0.084205   459.340094     1.920113   0.084205  -3.407165   0.000000 3
Si     0.074696     2.318230     1.920113   0.074696  -3.442109   0.000000 1
Si    -1.280807     0.412249     1.920113   0.076918  -3.427977   0.000000 1
Si   -52.896058    13.559210     0.000000   0.055217   0.118418   0.000000 1
Si   -52.904046    17.395821     0.000000   0.047229   0.114803   0.000000 1
Si   -55.612475    15.467736     1.920113   0.054250   0.106831   0.000000 1
Si   -51.543963    15.482744     0.000000   0.049587   0.121839   0.000000 1
Si   -47.471334    13.581706     0.000000   0.049041   0.140914   0.000000 1
Si   -47.478579    17.416090     0.000000   0.041796   0.135072   0.000000 1
Si   -50.187714    15.488023     1.920113   0.048111   0.127118   0.000000 1
Si   -46.118659    15.504621     0.000000   0.043991   0.143716   0.000000 1
Si   -42.045662    13.606240     0.000000   0.043813   0.165448   0.000000 1
Si   -42.052204    17.438067     0.000000   0.037271   0.157049   0.000000 1
Si   -44.762188    15.510383     1.920113   0.042737   0.149478   0.000000 1
Si   -40.692345    15.528247     0.000000   0.039405   0.167342   0.000000 1
Si   -36.618701    13.632253     0.000000   0.039874   0.191461   0.000000 1
Si   -36.624629    17.461243     0.000000   0.033946   0.180225   0.000000 1
Si   -39.335572    15.534361     1.920113   0.038453   0.173456   0.000000 1
Si   -35.264713    15.553040     0.000000   0.036137   0.192136   0.000000 1
Si   -31.190149    13.658996     0.000000   0.037526   0.218204   0.000000 1
Si   -31.195604    17.484948     0.000000   0.032071   0.203930   0.000000 1
Si   -33.907567    15.559337     1.920113   0.035558   0.198432   0.000000 1
Si   -29.835501    15.578260     0.000000   0.034449   0.217355   0.000000 1
Si   -25.759777    13.685561     0.000000   0.036998   0.244769   0.000000 1
Si   -25.764943    17.508382     0.000000   0.031832   0.227364   0.000000 1
Si   -28.477927    15.584530     1.920113   0.034298   0.223625   0.000000 1
Si   -24.404527    11.762790     0.000000   0.034523  -3.598115   0.000000 1
Si   -20.327466     9.870673     0.000000   0.038409  -3.570119   0.000000 1
Si   -20.332558    13.690407     0.000000   0.033317  -3.590611   0.000000 1
Si   -23.046496    11.768790     1.920113   0.034829  -3.592114   0.000000 1
Si   -18.971716    11.786079     0.000000   0.036434  -3.574826   0.000000 1
Si   -14.893231     9.893645     0.000000   0.041744  -3.547147   0.000000 1
Si   -14.898479    13.710493     0.000000   0.036496  -3.570525   0.000000 1
Si   -17.613230    11.791547     1.920113   0.037195  -3.569358   0.000000 1
Si   -13.537128    11.806831     0.000000   0.040122  -3.554073   0.000000 1
Si    -9.457249     9.913081     0.000000   0.046826  -3.527710   0.000000 1
Si    -9.462875    13.727415     0.000000   0.041200  -3.553603   0.000000 1
Si   -12.178224    11.811497     1.920113   0.041301  -3.549408   0.000000 1
Si    -8.100975    11.823971     0.000000   0.045375  -3.536934   0.000000 1
Si    -4.019869     9.927859     0.000000   0.053306  -3.512933   0.000000 1
Si    -4.026058    13.740225     0.000000   0.047117  -3.540793   0.000000 1
Si    -6.741732    11.827572     1.920113   0.046893  -3.533333   0.000000 1
Si    -2.663627    11.836490     0.000000   0.051823  -3.524415   0.000000 1
Si    -1.304162    11.838793     1.920113   0.053563  -3.522112   0.000000 1
Si   -54.242947     9.716123     1.920113   0.066053   0.115558   0.000000 1
Si   -54.252133    13.553953     1.920113   0.056867   0.113162   0.000000 1
Si   -55.603620    11.629788     1.920113   0.063105   0.109109   0.000000 1
Si   -51.535683    11.646329     0.000000   0.057867   0.125650   0.000000 1
Si   -48.819198     9.740272     1.920113   0.058902   0.139706   0.000000 1
Si   -48.827590    13.575874     1.920113   0.050510   0.135082   0.000000 1
Si   -50.179627    11.652166     1.920113   0.056198   0.131488   0.000000 1
Si   -46.111145    11.670577     0.000000   0.051505   0.149898   0.000000 1
Si   -43.394577     9.766964     1.920113   0.052623   0.166399   0.000000 1
Si   -43.402188    13.599944     1.920113   0.045012   0.159152   0.000000 1
Si   -44.754860    11.676987     1.920113   0.050065   0.156308   0.000000 1
Si   -40.685549    11.696921     0.000000   0.046201   0.176242   0.000000 1
Si   -37.968677     9.795645     1.920113   0.047623   0.195079   0.000000 1
Si   -37.975580    13.625648     1.920113   0.040720   0.184856   0.000000 1
Si   -39.328942    11.703763     1.920113   0.045083   0.183085   0.000000 1
Si   -35.258533    11.724724     0.000000   0.042317   0.204046   0.000000 1
Si   -32.541124     9.825541     1.920113   0.044276   0.224975   0.000000 1
Si   -32.547450    13.652287     1.920113   0.037950   0.211495   0.000000 1
Si   -33.901518    11.731809     1.920113   0.041607   0.211131   0.000000 1
Si   -29.829781    11.753156     0.000000   0.040169   0.232477   0.000000 1
Si   -27.111615     9.855672     1.920113   0.042885   0.255106   0.000000 1
Si   -27.117549    13.678992     1.920113   0.036951   0.238200   0.000000 1
Si   -28.472293    11.760246     1.920113   0.039932   0.239567   0.000000 1
Si   -24.399066     7.940977     0.000000   0.039984  -3.579702   0.000000 1
Si   -21.679957     6.044645     1.920113   0.043643  -3.555920   0.000000 1
Si   -21.685727     9.864515     1.920113   0.037873  -3.576277   0.000000 1
Si   -23.041065     7.947796     1.920113   0.040260  -3.572883   0.000000 1
Si   -18.966283     7.967487     0.000000   0.041867  -3.553192   0.000000 1
Si   -16.246105     6.071620     1.920113   0.046595  -3.528946   0.000000 1
Si   -16.251963     9.888188     1.920113   0.040737  -3.552603   0.000000 1
Si   -17.607766     7.973729     1.920113   0.042659  -3.546950   0.000000 1
Si   -13.531481     7.991215     0.000000   0.045769  -3.529463   0.000000 1
Si   -10.810193     6.095006     1.920113   0.051607  -3.505559   0.000000 1
Si   -10.816392     9.908617     1.920113   0.045408  -3.532175   0.000000 1
Si   -12.172487     7.996565     1.920113   0.047038  -3.524113   0.000000 1
Si    -8.094885     8.010901     0.000000   0.051465  -3.509777   0.000000 1
Si    -5.372555     6.113460     1.920113   0.058345  -3.487106   0.000000 1
Si    -5.379319     9.924659     1.920113   0.051581  -3.516133   0.000000 1
Si    -6.735499     8.015049     1.920113   0.053126  -3.505630   0.000000 1
Si    -2.656908     8.025349     0.000000   0.058542  -3.495330   0.000000 1
Si     0.066273     6.125749     1.920113   0.066273  -3.474816   0.000000 1
Si     0.058777     9.935281     1.920113   0.058777  -3.505510   0.000000 1
Si    -1.297264     8.028017     1.920113   0.060461  -3.492662   0.000000 1
Si   -52.911148    21.231818     0.000000   0.040127   0.110574   0.000000 1
Si   -52.917467    25.067278     0.000000   0.033808   0.105808   0.000000 1
Si   -55.627400    23.141647     1.920113   0.039325   0.100290   0.000000 1
Si   -51.557845    23.153751     0.000000   0.035705   0.112394   0.000000 1
Si   -47.484993    21.249963     0.000000   0.035382   0.128719   0.000000 1
Si   -47.490677    25.083403     0.000000   0.029698   0.121933   0.000000 1
Si   -50.201249    23.157987     1.920113   0.034576   0.116629   0.000000 1
Si   -46.131179    23.171234     0.000000   0.031471   0.129877   0.000000 1
Si   -42.057976    21.269538     0.000000   0.031499   0.148294   0.000000 1
Si   -42.063078    25.100723     0.000000   0.026397   0.139252   0.000000 1
Si   -44.774382    23.175810     1.920113   0.030543   0.134453   0.000000 1
Si   -40.703618    23.189927     0.000000   0.028132   0.148569   0.000000 1
Si   -36.629851    21.290081     0.000000   0.028724   0.168837   0.000000 1
Si   -36.634462    25.118823     0.000000   0.024113   0.157353   0.000000 1
Si   -39.346562    23.194735     1.920113   0.027463   0.153378   0.000000 1
Si   -35.274944    23.209357     0.000000   0.025906   0.168000   0.000000 1
Si   -31.200411    21.310996     0.000000   0.027264   0.189752   0.000000 1
Si   -31.204658    25.137177     0.000000   0.023017   0.175706   0.000000 1
Si   -33.917580    23.214263     1.920113   0.025545   0.172906   0.000000 1
Si   -29.844980    23.228943     0.000000   0.024970   0.187586   0.000000 1
Si   -25.769506    21.331584     0.000000   0.027269   0.210340   0.000000 1
Si   -25.773550    25.155173     0.000000   0.023225   0.193702   0.000000 1
Si   -28.487272    23.233786     1.920113   0.024953   0.192428   0.000000 1
Si   -24.413611    19.407779     0.000000   0.025439  -3.633578   0.000000 1
Si   -20.337073    17.510826     0.000000   0.028802  -3.610419   0.000000 1
Si   -20.341092    21.331902     0.000000   0.024783  -3.629568   0.000000 1
Si   -23.055543    19.412376     1.920113   0.025782  -3.628981   0.000000 1
Si   -18.980807    19.425568     0.000000   0.027343  -3.615790   0.000000 1
Si   -14.903153    17.528330     0.000000   0.031822  -3.592914   0.000000 1
Si   -14.907333    21.347094     0.000000   0.027642  -3.614376   0.000000 1
Si   -17.622388    19.429723     1.920113   0.028037  -3.611634   0.000000 1
Si   -13.546638    19.441296     0.000000   0.030612  -3.600061   0.000000 1
Si    -9.467904    17.543022     0.000000   0.036171  -3.578222   0.000000 1
Si    -9.472418    21.359802     0.000000   0.031657  -3.601668   0.000000 1
Si   -12.187901    19.444815     1.920113   0.031624  -3.596542   0.000000 1
Si    -8.111286    19.454188     0.000000   0.035064  -3.587169   0.000000 1
Si    -4.031606    17.554100     0.000000   0.041569  -3.567144   0.000000 1
Si    -4.036599    21.369351     0.000000   0.036576  -3.592119   0.000000 1
Si    -6.752294    19.456882     1.920113   0.036331  -3.584475   0.000000 1
Si    -2.675043    19.463529     0.000000   0.040407  -3.577829   0.000000 1
Si    -1.315888    19.465236     1.920113   0.041837  -3.576121   0.000000 1
Si   -54.260306    17.391067     1.920113   0.048694   0.110049   0.000000 1
Si   -54.267582    21.227548     1.920113   0.041418   0.106304   0.000000 1
Si   -55.620365    19.304996     1.920113   0.046360   0.103865   0.000000 1
Si   -51.551314    19.318524     0.000000   0.042236   0.117393   0.000000 1
Si   -48.835019    17.410846     1.920113   0.043081   0.129828   0.000000 1
Si   -48.841602    21.245278     1.920113   0.036498   0.124034   0.000000 1
Si   -50.194885    19.323269     1.920113   0.040940   0.122138   0.000000 1
Si   -46.125301    19.338147     0.000000   0.037349   0.137015   0.000000 1
Si   -43.408899    17.432439     1.920113   0.038301   0.151421   0.000000 1
Si   -43.414825    21.264534     1.920113   0.032375   0.143290   0.000000 1
Si   -44.768659    19.343297     1.920113   0.036266   0.142166   0.000000 1
Si   -40.698333    19.359224     0.000000   0.033417   0.158093   0.000000 1
Si   -37.981650    17.455370     1.920113   0.034650   0.174352   0.000000 1
Si   -37.986999    21.284884     1.920113   0.029301   0.163639   0.000000 1
Si   -39.341411    19.364662     1.920113   0.032614   0.163531   0.000000 1
Si   -35.270150    19.381232     0.000000   0.030700   0.180101   0.000000 1
Si   -32.553008    17.479012     1.920113   0.032392   0.197994   0.000000 1
Si   -32.557904    21.305767     1.920113   0.027496   0.184523   0.000000 1
Si   -33.912887    19.386805     1.920113   0.030238   0.185674   0.000000 1
Si   -29.840535    19.403512     0.000000   0.029415   0.202381   0.000000 1
Si   -27.122768    17.502598     1.920113   0.031732   0.221580   0.000000 1
Si   -27.127374    21.326510     1.920113   0.027126   0.205266   0.000000 1
Si   -28.482889    19.409034     1.920113   0.029336   0.207903   0.000000 1
Si   -24.409344    15.585057     0.000000   0.029706  -3.616074   0.000000 1
Si   -21.690817    13.685008     1.920113   0.032783  -3.596009   0.000000 1
Si   -21.695324    17.506110     1.920113   0.028276  -3.615135   0.000000 1
Si   -23.051292    15.590320     1.920113   0.030033  -3.610811   0.000000 1
Si   -18.976527    15.605452     0.000000   0.031623  -3.595680   0.000000 1
Si   -16.257151    13.705729     1.920113   0.035549  -3.575289   0.000000 1
Si   -16.261766    17.524186     1.920113   0.030934  -3.597059   0.000000 1
Si   -17.618074    15.610227     1.920113   0.032351  -3.590904   0.000000 1
Si   -13.542151    15.623550     0.000000   0.035099  -3.577581   0.000000 1
Si   -10.821904    13.723535     1.920113   0.039896  -3.557483   0.000000 1
Si   -10.826827    17.539659     1.920113   0.034973  -3.581586   0.000000 1
Si   -12.183333    15.627609     1.920113   0.036192  -3.573522   0.000000 1
Si    -8.106412    15.638439     0.000000   0.039938  -3.562692   0.000000 1
Si    -5.385353    13.737456     1.920113   0.045547  -3.543562   0.000000 1
Si    -5.390759    17.551710     1.920113   0.040141  -3.569534   0.000000 1
Si    -6.747299    15.641558     1.920113   0.041326  -3.559573   0.000000 1
Si    -2.669641    15.649267     0.000000   0.045809  -3.551865   0.000000 1
Si     0.052079    13.746628     1.920113   0.052079  -3.534390   0.000000 1
Si     0.046067    17.559615     1.920113   0.046067  -3.561629   0.000000 1
Si    -1.310337    15.651252     1.920113   0.047388  -3.549880   0.000000 1
Si   -52.923096    28.902272     0.000000   0.028179   0.100575   0.000000 1
Si   -52.928115    32.736862     0.000000   0.023160   0.094939   0.000000 1
Si   -55.639284    30.813401     1.920113   0.027441   0.091591   0.000000 1
Si   -51.568824    30.822836     0.000000   0.024726   0.101026   0.000000 1
Si   -47.495722    28.916479     0.000000   0.024653   0.114782   0.000000 1
Si   -47.500206    32.749252     0.000000   0.020169   0.107329   0.000000 1
Si   -50.211934    30.826126     1.920113   0.023891   0.104316   0.000000 1
Si   -46.141012    30.836378     0.000000   0.021638   0.114568   0.000000 1
Si   -42.067595    28.931684     0.000000   0.021880   0.129987   0.000000 1
Si   -42.071604    32.762475     0.000000   0.017871   0.120552   0.000000 1
Si   -44.783945    30.839906     1.920113   0.020980   0.118096   0.000000 1
Si   -40.712434    30.850752     0.000000   0.019316   0.128942   0.000000 1
Si   -36.638543    28.947517     0.000000   0.020032   0.145821   0.000000 1
Si   -36.642163    32.776204     0.000000   0.016412   0.134282   0.000000 1
Si   -39.355152    30.854433     1.920113   0.018873   0.132624   0.000000 1
Si   -35.282940    30.865588     0.000000   0.017910   0.143778   0.000000 1
Si   -31.208424    28.963516     0.000000   0.019251   0.161820   0.000000 1
Si   -31.211771    32.790038     0.000000   0.015904   0.148115   0.000000 1
Si   -33.925409    30.869318     1.920113   0.017716   0.147508   0.000000 1
Si   -29.852413    30.880440     0.000000   0.017537   0.158630   0.000000 1
Si   -25.777146    28.979151     0.000000   0.019629   0.177455   0.000000 1
Si   -25.780357    32.803518     0.000000   0.016418   0.161595   0.000000 1
Si   -28.494610    30.884097     1.920113   0.017615   0.162287   0.000000 1
Si   -24.420785    27.054573     0.000000   0.018265  -3.667236   0.000000 1
Si   -20.344684    25.153608     0.000000   0.021191  -3.648088   0.000000 1
Si   -20.347905    28.975916     0.000000   0.017970  -3.666007   0.000000 1
Si   -23.062705    27.058022     1.920113   0.018620  -3.663788   0.000000 1
Si   -18.988054    27.067888     0.000000   0.020096  -3.653922   0.000000 1
Si   -14.911085    25.166724     0.000000   0.023890  -3.634972   0.000000 1
Si   -14.914468    28.987163     0.000000   0.020507  -3.654760   0.000000 1
Si   -17.629705    27.070986     1.920113   0.020720  -3.650824   0.000000 1
Si   -13.554288    27.079589     0.000000   0.022962  -3.642221   0.000000 1
Si    -9.476486    25.177663     0.000000   0.027589  -3.624034   0.000000 1
Si    -9.480166    28.996519     0.000000   0.023909  -3.645404   0.000000 1
Si   -12.195700    27.082197     1.920113   0.023825  -3.639613   0.000000 1
Si    -8.119637    27.089123     0.000000   0.026713  -3.632687   0.000000 1
Si    -4.041109    25.185857     0.000000   0.032066  -3.615840   0.000000 1
Si    -4.045197    29.003510     0.000000   0.027978  -3.638413   0.000000 1
Si    -6.760861    27.091108     1.920113   0.027764  -3.630702   0.000000 1
Si    -2.684329    27.095988     0.000000   0.031121  -3.625822   0.000000 1
Si    -1.325433    27.097237     1.920113   0.032292  -3.624573   0.000000 1
Si   -54.274064    25.063473     1.920113   0.034936   0.102003   0.000000 1
Si   -54.279844    28.898912     1.920113   0.029156   0.097215   0.000000 1
Si   -55.633678    26.977760     1.920113   0.033047   0.096176   0.000000 1
Si   -51.563653    26.988500     0.000000   0.029897   0.106916   0.000000 1
Si   -48.847442    25.079247     1.920113   0.030658   0.117776   0.000000 1
Si   -48.852629    28.912822     1.920113   0.025471   0.111125   0.000000 1
Si   -50.206904    26.992250     1.920113   0.028921   0.110667   0.000000 1
Si   -46.136388    27.003957     0.000000   0.026262   0.122374   0.000000 1
Si   -43.420065    25.096302     1.920113   0.027135   0.134832   0.000000 1
Si   -43.424708    28.927809     1.920113   0.022492   0.126112   0.000000 1
Si   -44.779450    27.007992     1.920113   0.025475   0.126409   0.000000 1
Si   -40.708292    27.020418     0.000000   0.023458   0.138834   0.000000 1
Si   -37.991722    25.114251     1.920113   0.024578   0.152780   0.000000 1
Si   -37.995901    28.943523     1.920113   0.020399   0.141826   0.000000 1
Si   -39.351117    27.024642     1.920113   0.022908   0.143058   0.000000 1
Si   -35.279183    27.037462     0.000000   0.021667   0.155879   0.000000 1
Si   -32.562228    25.132595     1.920113   0.023172   0.171124   0.000000 1
Si   -32.566059    28.959527     1.920113   0.019341   0.157831   0.000000 1
Si   -33.921729    27.041756     1.920113   0.021396   0.160173   0.000000 1
Si   -29.848916    27.054580     0.000000   0.021034   0.172996   0.000000 1
Si   -27.131453    25.150744     1.920113   0.023047   0.189274   0.000000 1
Si   -27.135077    28.975309     1.920113   0.019423   0.173612   0.000000 1
Si   -28.491156    27.058802     1.920113   0.021069   0.177219   0.000000 1
Si   -24.417403    23.230954     0.000000   0.021647  -3.650630   0.000000 1
Si   -21.699332    21.327800     1.920113   0.024268  -3.633670   0.000000 1
Si   -21.702909    25.150061     1.920113   0.020691  -3.651636   0.000000 1
Si   -23.059326    23.234948     1.920113   0.021999  -3.646636   0.000000 1
Si   -18.984628    23.246392     0.000000   0.023522  -3.635192   0.000000 1
Si   -16.265888    21.343502     1.920113   0.026812  -3.617969   0.000000 1
Si   -16.269585    25.163626     1.920113   0.023115  -3.638070   0.000000 1
Si   -17.626244    23.249991     1.920113   0.024181  -3.631593   0.000000 1
Si   -13.550663    23.259997     0.000000   0.026587  -3.621586   0.000000 1
Si   -10.831243    21.356897     1.920113   0.030557  -3.604574   0.000000 1
Si   -10.835219    25.175164     1.920113   0.026581  -3.626532   0.000000 1
Si   -12.192003    23.263036     1.920113   0.027522  -3.618548   0.000000 1
Si    -8.115673    23.271114     0.000000   0.030677  -3.610469   0.000000 1
Si    -5.395621    21.367294     1.920113   0.035279  -3.594176   0.000000 1
Si    -5.400010    25.184094     1.920113   0.030890  -3.617603   0.000000 1
Si    -6.756793    23.273433     1.920113   0.031832  -3.608151   0.000000 1
Si    -2.679917    23.279142     0.000000   0.035533  -3.602441   0.000000 1
Si     0.040652    21.374088     1.920113   0.040652  -3.587383   0.000000 1
Si     0.035755    25.189909     1.920113   0.035755  -3.611788   0.000000 1
Si    -1.320897    23.280606     1.920113   0.036828  -3.600978   0.000000 1
Si   -52.932595    36.571105     0.000000   0.018680   0.088956   0.000000 1
Si   -52.936600    40.405050     0.000000   0.014675   0.082675   0.000000 1
Si   -55.648778    38.483497     1.920113   0.017947   0.081235   0.000000 1
Si   -51.577547    38.490503     0.000000   0.016003   0.088241   0.000000 1
Si   -47.504198    36.581775     0.000000   0.016177   0.099625   0.000000 1
Si   -47.507757    40.414094     0.000000   0.012618   0.091719   0.000000 1
Si   -50.220409    38.492942     1.920113   0.015416   0.090680   0.000000 1
Si   -46.148782    38.500529     0.000000   0.013868   0.098267   0.000000 1
Si   -42.075167    36.593140     0.000000   0.014308   0.110991   0.000000 1
Si   -42.078341    40.423720     0.000000   0.011134   0.101345   0.000000 1
Si   -44.791496    38.503135     1.920113   0.013429   0.100873   0.000000 1
Si   -40.719385    38.511130     0.000000   0.012365   0.108868   0.000000 1
Si   -36.645383    36.604917     0.000000   0.013192   0.122768   0.000000 1
Si   -36.648255    40.433684     0.000000   0.010320   0.111308   0.000000 1
Si   -39.361924    38.513838     1.920113   0.012101   0.111576   0.000000 1
Si   -35.289254    38.522026     0.000000   0.011596   0.119764   0.000000 1
Si   -31.214756    36.616756     0.000000   0.012919   0.134607   0.000000 1
Si   -31.217427    40.443685     0.000000   0.010248   0.121310   0.000000 1
Si   -33.931597    38.524757     1.920113   0.011528   0.122495   0.000000 1
Si   -29.858315    38.532885     0.000000   0.011635   0.130623   0.000000 1
Si   -25.783233    36.628267     0.000000   0.013542   0.146118   0.000000 1
Si   -25.785817    40.453394     0.000000   0.010958   0.131018   0.000000 1
Si   -28.500450    38.535551     1.920113   0.011775   0.133289   0.000000 1
Si   -24.426534    34.703111     0.000000   0.012516  -3.699152   0.000000 1
Si   -20.350806    32.798797     0.000000   0.015069  -3.683352   0.000000 1
Si   -20.353427    36.622225     0.000000   0.012448  -3.700150   0.000000 1
Si   -23.068457    34.705613     1.920113   0.012868  -3.696649   0.000000 1
Si   -18.993920    34.712759     0.000000   0.014230  -3.689503   0.000000 1
Si   -14.917528    32.808359     0.000000   0.017447  -3.673790   0.000000 1
Si   -14.920306    36.630263     0.000000   0.014669  -3.692112   0.000000 1
Si   -17.635643    34.714998     1.920113   0.014782  -3.687265   0.000000 1
Si   -13.560537    34.721201     0.000000   0.016713  -3.681061   0.000000 1
Si    -9.483507    32.816296     0.000000   0.020568  -3.665853   0.000000 1
Si    -9.486551    36.636924     0.000000   0.017524  -3.685452   0.000000 1
Si   -12.202083    34.723078     1.920113   0.017442  -3.679184   0.000000 1
Si    -8.126503    34.728050     0.000000   0.019847  -3.674212   0.000000 1
Si    -4.048917    32.822213     0.000000   0.024258  -3.659936   0.000000 1
Si    -4.052312    36.641881     0.000000   0.020863  -3.680494   0.000000 1
Si    -6.767912    34.729473     1.920113   0.020713  -3.672789   0.000000 1
Si    -2.691991    34.732961     0.000000   0.023459  -3.669302   0.000000 1
Si    -1.333314    34.733851     1.920113   0.024411  -3.668412   0.000000 1
Si   -54.285002    32.733927     1.920113   0.023998   0.092004   0.000000 1
Si   -54.289611    36.568574     1.920113   0.019389   0.086425   0.000000 1
Si   -55.644294    34.648629     1.920113   0.022431   0.086593   0.000000 1
Si   -51.573433    34.656820     0.000000   0.020117   0.094784   0.000000 1
Si   -48.857243    32.746066     1.920113   0.020857   0.104143   0.000000 1
Si   -48.861352    36.579033     1.920113   0.016748   0.096884   0.000000 1
Si   -50.216413    34.659672     1.920113   0.019412   0.097636   0.000000 1
Si   -46.145122    34.668553     0.000000   0.017528   0.106517   0.000000 1
Si   -43.428828    32.759108     1.920113   0.018372   0.117185   0.000000 1
Si   -43.432491    36.590249     1.920113   0.014709   0.108100   0.000000 1
Si   -44.787940    34.671605     1.920113   0.016985   0.109569   0.000000 1
Si   -40.716112    34.680976     0.000000   0.015638   0.118941   0.000000 1
Si   -37.999609    32.772744     1.920113   0.016691   0.130821   0.000000 1
Si   -38.002905    36.601951     1.920113   0.013395   0.119802   0.000000 1
Si   -39.358735    34.684153     1.920113   0.015290   0.122117   0.000000 1
Si   -35.286279    34.693767     0.000000   0.014571   0.131731   0.000000 1
Si   -32.569463    32.786592     1.920113   0.015937   0.144669   0.000000 1
Si   -32.572496    36.613810     1.920113   0.012904   0.131661   0.000000 1
Si   -33.928680    34.696978     1.920113   0.014445   0.134942   0.000000 1
Si   -29.855529    34.706539     0.000000   0.014421   0.144503   0.000000 1
Si   -27.138308    32.800208     1.920113   0.016192   0.158285   0.000000 1
Si   -27.141199    36.625444     1.920113   0.013301   0.143295   0.000000 1
Si   -28.497692    34.709678     1.920113   0.014533   0.147642   0.000000 1
Si   -24.423814    30.878629     0.000000   0.015236  -3.683407   0.000000 1
Si   -21.706114    28.972869     1.920113   0.017486  -3.669054   0.000000 1
Si   -21.708996    32.796204     1.920113   0.014604  -3.685945   0.000000 1
Si   -23.065733    30.881582     1.920113   0.015592  -3.680454   0.000000 1
Si   -18.991136    30.890021     0.000000   0.017014  -3.672015   0.000000 1
Si   -16.272914    28.984510     1.920113   0.019786  -3.657413   0.000000 1
Si   -16.275922    32.806105     1.920113   0.016778  -3.676044   0.000000 1
Si   -17.632823    30.892668     1.920113   0.017602  -3.669368   0.000000 1
Si   -13.557565    30.900009     0.000000   0.019685  -3.662027   0.000000 1
Si   -10.838813    28.994385     1.920113   0.022987  -3.647538   0.000000 1
Si   -10.842073    32.814487     1.920113   0.019727  -3.667662   0.000000 1
Si   -12.199046    30.902232     1.920113   0.020479  -3.659804   0.000000 1
Si    -8.123232    30.908127     0.000000   0.023118  -3.653909   0.000000 1
Si    -5.403989    29.002008     1.920113   0.026911  -3.639915   0.000000 1
Si    -5.407606    32.820943     1.920113   0.023294  -3.661206   0.000000 1
Si    -6.764551    30.909815     1.920113   0.024074  -3.652221   0.000000 1
Si    -2.688338    30.913959     0.000000   0.027112  -3.648077   0.000000 1
Si     0.031311    29.006957     1.920113   0.031311  -3.634966   0.000000 1
Si     0.027265    32.825124     1.920113   0.027265  -3.657025   0.000000 1
Si    -1.329555    30.915018     1.920113   0.028170  -3.647018   0.000000 1
Si   -52.940184    44.238744     0.000000   0.011091   0.076142   0.000000 1
Si   -52.943396    48.072225     0.000000   0.007879   0.069397   0.000000 1
Si   -55.656396    46.152344     1.920113   0.010329   0.069629   0.000000 1
Si   -51.584516    46.157152     0.000000   0.009034   0.074437   0.000000 1
Si   -47.510936    44.246250     0.000000   0.009439   0.083649   0.000000 1
Si   -47.513781    48.078280     0.000000   0.006594   0.075452   0.000000 1
Si   -50.227172    46.158828     1.920113   0.008653   0.076114   0.000000 1
Si   -46.154966    46.164051     0.000000   0.007684   0.081336   0.000000 1
Si   -42.081175    44.254247     0.000000   0.008300   0.091646   0.000000 1
Si   -42.083710    48.084750     0.000000   0.005765   0.081922   0.000000 1
Si   -44.797503    46.165846     1.920113   0.007422   0.083131   0.000000 1
Si   -40.724913    46.171356     0.000000   0.006837   0.088641   0.000000 1
Si   -36.650822    44.262525     0.000000   0.007753   0.099924   0.000000 1
Si   -36.653124    48.091461     0.000000   0.005451   0.088633   0.000000 1
Si   -39.367313    46.173222     1.920113   0.006712   0.090507   0.000000 1
Si   -35.294293    46.178863     0.000000   0.006557   0.096149   0.000000 1
Si   -31.219823    44.270831     0.000000   0.007852   0.108230   0.000000 1
Si   -31.221979    48.098201     0.000000   0.005696   0.095373   0.000000 1
Si   -33.936544    46.180745     1.920113   0.006581   0.098030   0.000000 1
Si   -29.863062    46.186339     0.000000   0.006888   0.103625   0.000000 1
Si   -25.788148    44.278888     0.000000   0.008627   0.116287   0.000000 1
Si   -25.790256    48.104741     0.000000   0.006519   0.101914   0.000000 1
Si   -28.505157    46.188173     1.920113   0.007068   0.105458   0.000000 1
Si   -24.431205    42.353298     0.000000   0.007845  -3.729417   0.000000 1
Si   -20.355804    40.446172     0.000000   0.010071  -3.716430   0.000000 1
Si   -20.357966    44.270611     0.000000   0.007909  -3.732216   0.000000 1
Si   -23.073144    42.355016     1.920113   0.008181  -3.727698   0.000000 1
Si   -18.998738    42.359918     0.000000   0.009412  -3.722797   0.000000 1
Si   -14.922836    40.452829     0.000000   0.012139  -3.709773   0.000000 1
Si   -14.925149    44.276014     0.000000   0.009826  -3.726814   0.000000 1
Si   -17.640532    42.361452     1.920113   0.009893  -3.721263   0.000000 1
Si   -13.565715    42.365698     0.000000   0.011535  -3.717017   0.000000 1
Si    -9.489332    40.458339     0.000000   0.014743  -3.704263   0.000000 1
Si    -9.491882    44.280484     0.000000   0.012193  -3.722344   0.000000 1
Si   -12.207381    42.366981     1.920113   0.012144  -3.715733   0.000000 1
Si    -8.132225    42.370376     0.000000   0.014125  -3.712339   0.000000 1
Si    -4.055420    40.462434     0.000000   0.017755  -3.700167   0.000000 1
Si    -4.058274    44.283804     0.000000   0.014901  -3.719024   0.000000 1
Si    -6.773794    42.371346     1.920113   0.014831  -3.711368   0.000000 1
Si    -2.698397    42.373721     0.000000   0.017053  -3.708994   0.000000 1
Si    -1.339905    42.374326     1.920113   0.017820  -3.708388   0.000000 1
Si   -54.293734    40.402905     1.920113   0.015266   0.080530   0.000000 1
Si   -54.297426    44.236965     1.920113   0.011574   0.074364   0.000000 1
Si   -55.652794    42.318055     1.920113   0.013931   0.075566   0.000000 1
Si   -51.581225    42.323933     0.000000   0.012325   0.081445   0.000000 1
Si   -48.865018    40.411770     1.920113   0.013082   0.089395   0.000000 1
Si   -48.868293    44.244321     1.920113   0.009807   0.081720   0.000000 1
Si   -50.223978    42.325980     1.920113   0.011847   0.083492   0.000000 1
Si   -46.152048    42.332350     0.000000   0.010602   0.089861   0.000000 1
Si   -43.435754    40.421272     1.920113   0.011446   0.098897   0.000000 1
Si   -43.438668    44.252214     1.920113   0.008532   0.089612   0.000000 1
Si   -44.794668    42.334537     1.920113   0.010257   0.092049   0.000000 1
Si   -40.722304    42.341247     0.000000   0.009446   0.098759   0.000000 1
Si   -38.005844    40.431175     1.920113   0.010456   0.108800   0.000000 1
Si   -38.008469    44.260441     1.920113   0.007831   0.097840   0.000000 1
Si   -39.364769    42.343519     1.920113   0.009256   0.101031   0.000000 1
Si   -35.291912    42.350386     0.000000   0.008938   0.107897   0.000000 1
Si   -32.575206    40.441197     1.920113   0.010194   0.118821   0.000000 1
Si   -32.577635    44.268765     1.920113   0.007765   0.106164   0.000000 1
Si   -33.934205    42.352675     1.920113   0.008920   0.110187   0.000000 1
Si   -29.860814    42.359484     0.000000   0.009136   0.116996   0.000000 1
Si   -27.143793    40.451014     1.920113   0.010707   0.128638   0.000000 1
Si   -27.146130    44.276914     1.920113   0.008370   0.114313   0.000000 1
Si   -28.502926    42.361716     1.920113   0.009299   0.119228   0.000000 1
Si   -24.428987    38.528005     0.000000   0.010063  -3.714484   0.000000 1
Si   -21.711596    36.620042     1.920113   0.012004  -3.702333   0.000000 1
Si   -21.713951    40.444363     1.920113   0.009649  -3.718239   0.000000 1
Si   -23.070917    38.530097     1.920113   0.010408  -3.712391   0.000000 1
Si   -18.996444    38.536068     0.000000   0.011706  -3.706420   0.000000 1
Si   -16.278650    36.628369     1.920113   0.014050  -3.694006   0.000000 1
Si   -16.281132    40.451261     1.920113   0.011568  -3.711340   0.000000 1
Si   -17.638202    38.537937     1.920113   0.012223  -3.704551   0.000000 1
Si   -13.563243    38.543113     0.000000   0.014007  -3.699375   0.000000 1
Si   -10.845041    36.635406     1.920113   0.016759  -3.686969   0.000000 1
Si   -10.847752    40.457084     1.920113   0.014048  -3.705517   0.000000 1
Si   -12.204851    38.544679     1.920113   0.014674  -3.697810   0.000000 1
Si    -8.129490    38.548821     0.000000   0.016860  -3.693667   0.000000 1
Si    -5.410907    36.640817     1.920113   0.019993  -3.681558   0.000000 1
Si    -5.413928    40.461556     1.920113   0.016972  -3.701045   0.000000 1
Si    -6.770981    38.550006     1.920113   0.017644  -3.692483   0.000000 1
Si    -2.695332    38.552907     0.000000   0.020118  -3.689582   0.000000 1
Si     0.023569    36.644315     1.920113   0.023569  -3.678060   0.000000 1
Si     0.020184    40.464442     1.920113   0.020184  -3.698159   0.000000 1
Si    -1.336751    38.553646     1.920113   0.020974  -3.688842   0.000000 1
Si   -52.946280    51.905528     0.000000   0.004995   0.062475   0.000000 1
Si   -52.948872    55.738686     0.000000   0.002403   0.055406   0.000000 1
Si   -55.662540    53.820269     1.920113   0.004185   0.057102   0.000000 1
Si   -51.590117    53.823096     0.000000   0.003433   0.059929   0.000000 1
Si   -47.516330    51.910213     0.000000   0.004045   0.067159   0.000000 1
Si   -47.518621    55.742076     0.000000   0.001754   0.058796   0.000000 1
Si   -50.232602    53.824091     1.920113   0.003223   0.060924   0.000000 1
Si   -46.159924    53.827217     0.000000   0.002726   0.064050   0.000000 1
Si   -42.085984    51.915252     0.000000   0.003491   0.072198   0.000000 1
Si   -42.088027    55.745774     0.000000   0.001448   0.062494   0.000000 1
Si   -44.802318    53.828299     1.920113   0.002607   0.065131   0.000000 1
Si   -40.729351    53.831638     0.000000   0.002399   0.068471   0.000000 1
Si   -36.655192    51.920505     0.000000   0.003383   0.077451   0.000000 1
Si   -36.657056    55.749667     0.000000   0.001519   0.066387   0.000000 1
Si   -39.371644    53.832774     1.920113   0.002381   0.069607   0.000000 1
Si   -35.298360    53.836223     0.000000   0.002490   0.073056   0.000000 1
Si   -31.223925    51.925796     0.000000   0.003750   0.082742   0.000000 1
Si   -31.225687    55.753617     0.000000   0.001988   0.070337   0.000000 1
Si   -33.940544    53.837377     1.920113   0.002581   0.074210   0.000000 1
Si   -29.866928    53.840818     0.000000   0.003022   0.077651   0.000000 1
Si   -25.792170    51.930942     0.000000   0.004605   0.087888   0.000000 1
Si   -25.793912    55.757479     0.000000   0.002863   0.074199   0.000000 1
Si   -28.509000    53.841948     1.920113   0.003225   0.078781   0.000000 1
Si   -24.435051    50.005026     0.000000   0.003999  -3.758141   0.000000 1
Si   -20.359939    48.095519     0.000000   0.005936  -3.747535   0.000000 1
Si   -20.361745    51.920871     0.000000   0.004130  -3.762410   0.000000 1
Si   -23.077014    50.006089     1.920113   0.004311  -3.757078   0.000000 1
Si   -19.002748    50.009123     0.000000   0.005402  -3.754044   0.000000 1
Si   -14.927269    48.099780     0.000000   0.007706  -3.743274   0.000000 1
Si   -14.929219    51.924089     0.000000   0.005756  -3.759191   0.000000 1
Si   -17.644610    50.010074     1.920113   0.005815  -3.753093   0.000000 1
Si   -13.570059    50.012706     0.000000   0.007191  -3.750461   0.000000 1
Si    -9.494227    48.103306     0.000000   0.009848  -3.739748   0.000000 1
Si    -9.496389    51.926758     0.000000   0.007686  -3.756522   0.000000 1
Si   -12.211834    50.013503     1.920113   0.007691  -3.749664   0.000000 1
Si    -8.137052    50.015609     0.000000   0.009298  -3.747558   0.000000 1
Si    -4.060903    48.105926     0.000000   0.012272  -3.737128   0.000000 1
Si    -4.063330    51.928744     0.000000   0.009845  -3.754537   0.000000 1
Si    -6.778760    50.016212     1.920113   0.009865  -3.746955   0.000000 1
Si    -2.703815    50.017685     0.000000   0.011635  -3.745482   0.000000 1
Si    -1.345482    50.018061     1.920113   0.012243  -3.745106   0.000000 1
Si   -54.300738    48.070794     1.920113   0.008262   0.067966   0.000000 1
Si   -54.303712    51.904428     1.920113   0.005288   0.061374   0.000000 1
Si   -55.659631    49.986404     1.920113   0.007094   0.063463   0.000000 1
Si   -51.587467    49.990195     0.000000   0.006083   0.067255   0.000000 1
Si   -48.871225    48.076722     1.920113   0.006875   0.073894   0.000000 1
Si   -48.873853    51.909004     1.920113   0.004247   0.065950   0.000000 1
Si   -50.230033    49.991521     1.920113   0.005792   0.068581   0.000000 1
Si   -46.157579    49.995664     0.000000   0.005071   0.072724   0.000000 1
Si   -43.441274    48.083103     1.920113   0.005926   0.080276   0.000000 1
Si   -43.443610    51.913967     1.920113   0.003590   0.070913   0.000000 1
Si   -44.800041    49.997091     1.920113   0.004884   0.074150   0.000000 1
Si   -40.727251    50.001479     0.000000   0.004499   0.078539   0.000000 1
Si   -38.010821    48.089770     1.920113   0.005479   0.086943   0.000000 1
Si   -38.012934    51.919179     1.920113   0.003366   0.076125   0.000000 1
Si   -39.369594    50.002968     1.920113   0.004431   0.080027   0.000000 1
Si   -35.296432    50.007473     0.000000   0.004418   0.084532   0.000000 1
Si   -32.579819    48.096523     1.920113   0.005581   0.093696   0.000000 1
Si   -32.581788    51.924477     1.920113   0.003612   0.081423   0.000000 1
Si   -33.938647    50.008976     1.920113   0.004478   0.086035   0.000000 1
Si   -29.865091    50.013451     0.000000   0.004859   0.090510   0.000000 1
Si   -27.148241    48.103139     1.920113   0.006259   0.100311   0.000000 1
Si   -27.150154    51.929680     1.920113   0.004346   0.086626   0.000000 1
Si   -28.507173    50.014918     1.920113   0.005052   0.091978   0.000000 1
Si   -24.433218    46.178977     0.000000   0.005832  -3.743964   0.000000 1
Si   -21.716090    44.269143     1.920113   0.007510  -3.733685   0.000000 1
Si   -21.718040    48.094362     1.920113   0.005560  -3.748692   0.000000 1
Si   -23.075169    46.180353     1.920113   0.006156  -3.742588   0.000000 1
Si   -19.000832    46.184279     0.000000   0.007318  -3.738662   0.000000 1
Si   -16.283399    44.274742     1.920113   0.009301  -3.728085   0.000000 1
Si   -16.285475    48.098777     1.920113   0.007225  -3.744277   0.000000 1
Si   -17.642660    46.185508     1.920113   0.007765  -3.737433   0.000000 1
Si   -13.567979    46.188909     0.000000   0.009271  -3.734032   0.000000 1
Si   -10.850236    44.279466     1.920113   0.011564  -3.723361   0.000000 1
Si   -10.852518    48.102503     1.920113   0.009282  -3.740550   0.000000 1
Si   -12.209701    46.189937     1.920113   0.009824  -3.733003   0.000000 1
Si    -8.134738    46.192656     0.000000   0.011612  -3.730284   0.000000 1
Si    -5.416701    44.283092     1.920113   0.014199  -3.719736   0.000000 1
Si    -5.419254    48.105364     1.920113   0.011646  -3.737689   0.000000 1
Si    -6.776378    46.193433     1.920113   0.012247  -3.729507   0.000000 1
Si    -2.701216    46.195335     0.000000   0.014234  -3.727606   0.000000 1
Si     0.017072    44.285430     1.920113   0.017072  -3.717397   0.000000 1
Si     0.014206    48.107209     1.920113   0.014206  -3.735845   0.000000 1
Si    -1.342806    46.195819     1.920113   0.014919  -3.727122   0.000000 1
Si   -52.951207    59.571725     0.000000   0.000068   0.048218   0.000000 1
Si   -52.953312    63.404669     0.000000  -0.002037   0.040936   0.000000 1
Si   -55.667522    61.487534     1.920113  -0.000797   0.043914   0.000000 1
Si   -51.594647    61.488578     0.000000  -0.001097   0.044958   0.000000 1
Si   -47.520681    59.573893     0.000000  -0.000306   0.050386   0.000000 1
Si   -47.522539    63.405682     0.000000  -0.002164   0.041950   0.000000 1
Si   -50.236992    61.488964     1.920113  -0.001167   0.045344   0.000000 1
Si   -46.163931    61.490230     0.000000  -0.001281   0.046611   0.000000 1
Si   -42.089867    59.576332     0.000000  -0.000392   0.052826   0.000000 1
Si   -42.091529    63.406940     0.000000  -0.002054   0.043208   0.000000 1
Si   -44.806211    61.490683     1.920113  -0.001286   0.047064   0.000000 1
Si   -40.732947    61.492123     0.000000  -0.001197   0.048503   0.000000 1
Si   -36.658741    59.578958     0.000000  -0.000166   0.055452   0.000000 1
Si   -36.660267    63.408383     0.000000  -0.001692   0.044651   0.000000 1
Si   -39.375157    61.492624     1.920113  -0.001132   0.049004   0.000000 1
Si   -35.301677    61.494177     0.000000  -0.000827   0.050557   0.000000 1
Si   -31.227287    59.581664     0.000000   0.000388   0.058157   0.000000 1
Si   -31.228743    63.409933     0.000000  -0.001068   0.046200   0.000000 1
Si   -33.943814    61.494705     1.920113  -0.000689   0.051085   0.000000 1
Si   -29.870113    61.496303     0.000000  -0.000163   0.052684   0.000000 1
Si   -25.795503    59.584340     0.000000   0.001272   0.060834   0.000000 1
Si   -25.796960    63.411514     0.000000  -0.000185   0.047781   0.000000 1
Si   -28.512176    61.496835     1.920113   0.000049   0.053215   0.000000 1
Si   -24.438257    57.658180     0.000000   0.000793  -3.785440   0.000000 1
Si   -20.363404    55.746643     0.000000   0.002471  -3.776863   0.000000 1
Si   -20.364931    59.572815     0.000000   0.000944  -3.790918   0.000000 1
Si   -23.080249    57.658689     1.920113   0.001076  -3.784930   0.000000 1
Si   -19.006125    57.660157     0.000000   0.002025  -3.783462   0.000000 1
Si   -14.931016    55.748908     0.000000   0.003959  -3.774598   0.000000 1
Si   -14.932678    59.574205     0.000000   0.002297  -3.789527   0.000000 1
Si   -17.648053    57.660620     1.920113   0.002372  -3.783000   0.000000 1
Si   -13.573748    57.661910     0.000000   0.003502  -3.781709   0.000000 1
Si    -9.498387    55.750795     0.000000   0.005688  -3.772711   0.000000 1
Si    -9.500240    59.575378     0.000000   0.003835  -3.788354   0.000000 1
Si   -12.215620    57.662303     1.920113   0.003905  -3.781316   0.000000 1
Si    -8.141170    57.663345     0.000000   0.005180  -3.780275   0.000000 1
Si    -4.065577    55.752205     0.000000   0.007598  -3.771301   0.000000 1
Si    -4.067663    59.576264     0.000000   0.005512  -3.787469   0.000000 1
Si    -6.783001    57.663645     1.920113   0.005624  -3.779975   0.000000 1
Si    -2.708449    57.664379     0.000000   0.007001  -3.779240   0.000000 1
Si    -1.350254    57.664568     1.920113   0.007471  -3.779052   0.000000 1
Si   -54.306387    55.737899     1.920113   0.002613   0.054619   0.000000 1
Si   -54.308797    59.571235     1.920113   0.000203   0.047728   0.000000 1
Si   -55.665160    57.653970     1.920113   0.001565   0.050577   0.000000 1
Si   -51.592500    57.655882     0.000000   0.001050   0.052488   0.000000 1
Si   -48.876214    55.741196     1.920113   0.001886   0.057916   0.000000 1
Si   -48.878339    59.573323     1.920113  -0.000239   0.049817   0.000000 1
Si   -50.234911    57.656564     1.920113   0.000914   0.053170   0.000000 1
Si   -46.162032    57.658733     0.000000   0.000618   0.055339   0.000000 1
Si   -43.445709    55.744828     1.920113   0.001491   0.061547   0.000000 1
Si   -43.447599    59.575702     1.920113  -0.000399   0.052196   0.000000 1
Si   -44.804366    57.659490     1.920113   0.000559   0.056096   0.000000 1
Si   -40.731241    57.661848     0.000000   0.000509   0.058455   0.000000 1
Si   -38.014836    55.748682     1.920113   0.001464   0.065402   0.000000 1
Si   -38.016553    59.578288     1.920113  -0.000253   0.054782   0.000000 1
Si   -39.373490    57.662656     1.920113   0.000535   0.059262   0.000000 1
Si   -35.300101    57.665123     0.000000   0.000749   0.061730   0.000000 1
Si   -32.583567    55.752630     1.920113   0.001833   0.069350   0.000000 1
Si   -32.585181    59.580984     1.920113   0.000219   0.057477   0.000000 1
Si   -33.942259    57.665952     1.920113   0.000866   0.062559   0.000000 1
Si   -29.868595    57.668437     0.000000   0.001355   0.065044   0.000000 1
Si   -27.151894    55.756530     1.920113   0.002606   0.073250   0.000000 1
Si   -27.153480    59.583680     1.920113   0.001020   0.060174   0.000000 1
Si   -28.510661    57.669256     1.920113   0.001564   0.065862   0.000000 1
Si   -24.436724    53.831432     0.000000   0.002326  -3.771961   0.000000 1
Si   -21.719822    51.919998     1.920113   0.003778  -3.763282   0.000000 1
Si   -21.721457    55.746032     1.920113   0.002143  -3.777475   0.000000 1
Si   -23.078701    53.832206     1.920113   0.002624  -3.771187   0.000000 1
Si   -19.004506    53.834424     0.000000   0.003644  -3.768969   0.000000 1
Si   -16.287381    51.923331     1.920113   0.005319  -3.759950   0.000000 1
Si   -16.289138    55.748373     1.920113   0.003562  -3.775133   0.000000 1
Si   -17.646401    53.835120     1.920113   0.004024  -3.768273   0.000000 1
Si   -13.571977    53.837052     0.000000   0.005273  -3.766341   0.000000 1
Si   -10.854621    51.926150     1.920113   0.007179  -3.757130   0.000000 1
Si   -10.856564    55.750365     1.920113   0.005236  -3.773141   0.000000 1
Si   -12.213801    53.837637     1.920113   0.005724  -3.765756   0.000000 1
Si    -8.139190    53.839187     0.000000   0.007160  -3.764206   0.000000 1
Si    -5.421611    51.928318     1.920113   0.009289  -3.754962   0.000000 1
Si    -5.423793    55.751902     1.920113   0.007107  -3.771604   0.000000 1
Si    -6.780961    53.839631     1.920113   0.007664  -3.763763   0.000000 1
Si    -2.706220    53.840717     0.000000   0.009230  -3.762676   0.000000 1
Si     0.011557    51.929717     1.920113   0.011557  -3.753563   0.000000 1
Si     0.009104    55.752899     1.920113   0.009104  -3.770608   0.000000 1
Si    -1.347958    53.840995     1.920113   0.009767  -3.762398   0.000000 1
Si   -20.366341    63.399365     0.000000  -0.000466  -3.804594   0.000000 1
Si   -14.934219    63.399951     0.000000   0.000756  -3.804007   0.000000 1
Si    -9.501961    63.400470     0.000000   0.002114  -3.803488   0.000000 1
Si    -4.069603    63.400876     0.000000   0.003572  -3.803082   0.000000 1
Si   -54.310971    63.404461     1.920113  -0.001971   0.040728   0.000000 1
Si   -48.880254    63.405405     1.920113  -0.002154   0.041672   0.000000 1
Si   -43.449305    63.406607     1.920113  -0.002105   0.042874   0.000000 1
Si   -38.018107    63.408008     1.920113  -0.001807   0.044275   0.000000 1
Si   -32.586649    63.409538     1.920113  -0.001249   0.045805   0.000000 1
Si   -27.154930    63.411121     1.920113  -0.000430   0.047388   0.000000 1
Si   -24.439665    61.485255     0.000000  -0.000615  -3.798591   0.000000 1
Si   -21.722960    59.572443     1.920113   0.000640  -3.791290   0.000000 1
Si   -21.724347    63.399214     1.920113  -0.000747  -3.804745   0.000000 1
Si   -23.081672    61.485520     1.920113  -0.000347  -3.798326   0.000000 1
Si   -19.007620    61.486298     0.000000   0.000530  -3.797548   0.000000 1
Si   -16.290760    59.573875     1.920113   0.001940  -3.789857   0.000000 1
Si   -16.292263    63.399809     1.920113   0.000437  -3.804149   0.000000 1
Si   -17.649579    61.486547     1.920113   0.000846  -3.797299   0.000000 1
Si   -13.575390    61.487249     0.000000   0.001860  -3.796597   0.000000 1
Si   -10.858364    59.575110     1.920113   0.003436  -3.788623   0.000000 1
Si   -10.860036    63.400350     1.920113   0.001764  -3.803609   0.000000 1
Si   -12.217307    61.487466     1.920113   0.002218  -3.796380   0.000000 1
Si    -8.143009    61.488044     0.000000   0.003341  -3.795802   0.000000 1
Si    -5.425817    59.576073     1.920113   0.005083  -3.787660   0.000000 1
Si    -5.427700    63.400788     1.920113   0.003200  -3.803171   0.000000 1
Si    -6.784895    61.488212     1.920113   0.003730  -3.795634   0.000000 1
Si    -2.710521    61.488626     0.000000   0.004929  -3.795220   0.000000 1
Si     0.006826    59.576703     1.920113   0.006826  -3.787030   0.000000 1
Si     0.004706    63.401084     1.920113   0.004706  -3.802875   0.000000 1
Si    -1.352388    61.488733     1.920113   0.005337  -3.795112   0.000000 1
