2160
Lattice="60.000000 0 0 0 199.544008 0 0 0 3.840226" Origin="-58.000000 0 0" Properties=species:S:1:pos:R:3:disp:R:3 pbc="F T T" frame="x=outward normal [1,-1,1], y=[1,-1,-2], z=beam [110]; A" state="dislocated"
Si   -53.253418     4.403884     0.126907   0.050636  -0.030427   0.126907
Si   -54.062731     2.193778     0.124362   0.025206  -0.023378   0.124362
Si   -50.168586   199.474982     0.141072  -0.000064  -0.069026   0.141072
Si   -53.291480     1.076528     2.047825   0.012574  -0.032050   0.127712
Si   -53.096115    17.731704     0.112865   0.207939  -0.005541   0.112865
Si   -53.907572    15.515921     0.113352   0.180365  -0.004168   0.113352
Si   -53.176102    11.064450     0.122196   0.127952  -0.021328   0.122196
Si   -50.013412    13.252622     0.133096   0.155111  -0.050311   0.133096
Si   -53.136484    14.397363     2.038270   0.167570  -0.014149   0.118157
Si   -50.824015    11.039006     0.132174   0.128390  -0.046772   0.132174
Si   -50.092283     6.587147     0.139175   0.076239  -0.064320   0.139175
Si   -46.931581     8.766746     0.152010   0.101410  -0.101877   0.152010
Si   -50.053311     9.918782     2.056812   0.115211  -0.058418   0.136699
Si   -47.741039     6.556332     0.149802   0.075835  -0.095135   0.149802
Si   -47.007984     2.106120     0.155051   0.025007  -0.111036   0.155051
Si   -43.848185     4.276760     0.169510   0.049274  -0.157551   0.169510
Si   -46.970130     5.435050     2.074126   0.062860  -0.107839   0.154013
Si   -44.656658     2.070293     0.166216   0.024684  -0.146863   0.166216
Si   -40.761936   199.328962     0.185857  -0.000009  -0.215046   0.185857
Si   -43.885207     0.948506     2.090271   0.012252  -0.160072   0.170158
Si   -53.947202    12.182935     2.037898   0.140735  -0.011421   0.117785
Si   -53.986192     8.851453     0.121047   0.101745  -0.017169   0.121047
Si   -54.024644     5.521688     2.043333   0.063293  -0.021201   0.123220
Si   -50.863218     7.706908     2.055147   0.089187  -0.053137   0.135034
Si   -53.215029     7.733229     2.045199   0.089025  -0.026816   0.125086
Si   -50.901725     4.377005     0.136827   0.050680  -0.057306   0.136827
Si   -50.939816     1.049398     2.057730   0.012589  -0.059180   0.137616
Si   -47.779182     3.226609     2.071294   0.037692  -0.099125   0.151180
Si   -50.130603     3.257853     2.060727   0.037919  -0.067881   0.140614
Si   -47.816924   199.443598     0.151618  -0.000050  -0.100410   0.151618
Si   -52.931949    31.074769     0.076732   0.372105   0.034590   0.076732
Si   -53.745381    28.855655     0.081765   0.342555   0.032632   0.081765
Si   -53.013626    24.403144     0.098034   0.290428   0.014432   0.098034
Si   -49.842619    26.604267     0.104467   0.325903  -0.001601   0.104467
Si   -52.972302    27.739236     2.008356   0.331752   0.024790   0.088243
Si   -50.657298    24.384682     0.107690   0.295108  -0.004030   0.107690
Si   -49.930144    19.925981     0.121971   0.238379  -0.028420   0.121971
Si   -46.763585    22.118659     0.131716   0.269406  -0.052898   0.131716
Si   -49.886775    23.264771     2.034224   0.281747  -0.015364   0.114111
Si   -47.577451    19.900283     0.132934   0.239422  -0.054118   0.132934
Si   -46.850887    15.438074     0.144676   0.182104  -0.082016   0.144676
Si   -43.688717    17.620556     0.157190   0.208742  -0.116689   0.157190
Si   -46.808142    18.777359     2.059124   0.224849  -0.068464   0.139011
Si   -44.500526    15.405116     0.156488   0.180816  -0.114974   0.156488
Si   -43.771659    10.942583     0.165576   0.125800  -0.143195   0.165576
Si   -40.612761    13.114338     0.180127   0.149167  -0.188596   0.180127
Si   -43.731206    14.280090     2.082152   0.166253  -0.131422   0.162039
Si   -41.422177    10.903061     0.177828   0.123633  -0.182717   0.177828
Si   -40.689598     6.442919     0.184567   0.072330  -0.208548   0.184567
Si   -37.532453     8.604427     0.200423   0.093943  -0.264196   0.200423
Si   -40.652021     9.776927     2.102922   0.109906  -0.200273   0.182809
Si   -38.339786     6.397839     0.196985   0.070493  -0.253628   0.196985
Si   -37.603356     1.941764     0.202009   0.023040  -0.275391   0.202009
Si   -34.446540     4.093989     0.218573   0.044325  -0.340322   0.218573
Si   -37.568415     5.271373     2.121600   0.057981  -0.271516   0.201487
Si   -35.252419     1.892016     0.214499   0.022329  -0.325139   0.214499
Si   -31.355284   199.128412     0.235536   0.000049  -0.415596   0.235536
Si   -34.479820     0.765618     2.138838   0.011044  -0.342960   0.218725
Si   -53.785712    25.520502     2.012075   0.302225   0.023213   0.091962
Si   -53.826565    22.185137     0.100555   0.261372   0.013581   0.100555
Si   -53.867307    18.850117     2.027760   0.220630   0.004295   0.107646
Si   -50.700435    21.046380     2.036183   0.251971  -0.016599   0.116070
Si   -53.055072    21.067116     2.026313   0.248981   0.004138   0.106200
Si   -50.742695    17.709041     0.122833   0.209710  -0.028204   0.122833
Si   -50.783887    14.373134     2.048263   0.168518  -0.038378   0.128150
Si   -47.620553    16.560898     2.059268   0.196321  -0.067769   0.139154
Si   -49.972385    16.588457     2.048352   0.196137  -0.040210   0.128239
Si   -47.662043    13.223616     0.143918   0.154830  -0.079317   0.143918
Si   -47.702109     9.888704     2.067530   0.114765  -0.088497   0.147417
Si   -44.541647    12.066974     2.080648   0.139695  -0.127382   0.160535
Si   -46.891946    12.101132     2.069059   0.141044  -0.093224   0.148946
Si   -44.581087     8.731744     0.163403   0.100255  -0.136878   0.163403
Si   -44.619271     5.399504     2.085373   0.062071  -0.143385   0.165260
Si   -41.460477     7.568060     2.100099   0.085333  -0.191984   0.179986
Si   -43.810498     7.608125     2.088129   0.086961  -0.151920   0.168016
Si   -41.497502     4.236374     0.181292   0.048309  -0.197937   0.181292
Si   -41.533794     0.907982     2.101965   0.012016  -0.200596   0.181851
Si   -38.375330     3.067092     2.117871   0.034949  -0.258642   0.197758
Si   -40.726049     3.112271     2.105667   0.035879  -0.213462   0.185554
Si   -38.410273   199.283753     0.197990   0.000006  -0.260254   0.197990
Si   -52.809466    44.400938     0.014047   0.494588   0.057825   0.014047
Si   -53.613277    42.183328     0.024682   0.474660   0.057371   0.024682
Si   -52.859401    37.741738     0.048463   0.444653   0.050092   0.048463
Si   -49.679245    39.954451     0.045333   0.489277   0.045649   0.045333
Si   -52.830655    41.072329     1.952011   0.473399   0.054949   0.031898
Si   -50.491483    37.734274     0.055102   0.460922   0.042628   0.055102
Si   -49.755176    33.282484     0.079146   0.413346   0.025149   0.079146
Si   -46.575032    35.491301     0.080872   0.457959   0.016810   0.080872
Si   -49.714731    36.619592     1.983391   0.453791   0.036524   0.063278
Si   -47.393050    33.268414     0.088693   0.423824   0.011080   0.088693
Si   -46.669726    28.805164     0.111155   0.363264  -0.017859   0.111155
Si   -43.494507    31.005913     0.118253   0.402952  -0.034266   0.118253
Si   -46.621768    32.148789     2.017450   0.411223   0.000033   0.097337
Si   -44.314111    28.781983     0.123218   0.367231  -0.041040   0.123218
Si   -43.596414    24.309518     0.142384   0.301046  -0.079194   0.142384
Si   -40.428550    26.498004     0.154407   0.333378  -0.107863   0.154407
Si   -43.546463    27.657166     2.051806   0.350997  -0.057280   0.131693
Si   -41.246029    24.276072     0.156152   0.299782  -0.112640   0.156152
Si   -40.527024    19.799493     0.171016   0.234904  -0.154907   0.171016
Si   -37.365847    21.973785     0.186709   0.260549  -0.197772   0.186709
Si   -40.479561    23.147178     2.083997   0.282367  -0.132957   0.163884
Si   -38.179449    19.756599     0.185527   0.230830  -0.197801   0.185527
Si   -37.454982    15.281331     0.196036   0.171414  -0.238758   0.196036
Si   -34.298223    17.442358     0.213832   0.192641  -0.294887   0.213832
Si   -37.412200    18.625517     2.112300   0.214196  -0.220306   0.192187
Si   -35.107953    15.231140     0.210477   0.166795  -0.288950   0.210477
Si   -34.376751    10.760811     0.217379   0.114114  -0.324967   0.217379
Si   -31.222191    12.911195     0.235852   0.133142  -0.391739   0.235852
Si   -34.338924    14.099603     2.136144   0.151940  -0.311909   0.216031
Si   -32.028827    10.705682     0.231240   0.110389  -0.380097   0.231240
Si   -31.291406     6.241593     0.235753   0.063927  -0.409874   0.235753
Si   -28.137525     8.384259     0.253829   0.082277  -0.484364   0.253829
Si   -31.257803     9.574746     2.155997   0.097530  -0.402454   0.235884
Si   -28.941965     6.183350     0.248835   0.061719  -0.468117   0.248835
Si   -28.199686     1.724935     0.252366   0.020116  -0.492221   0.252366
Si   -25.045603     3.862393     0.269333   0.038667  -0.571919   0.269333
Si   -28.169174     5.053364     2.173017   0.050627  -0.489525   0.252904
Si   -25.848685     1.664650     0.264719   0.019468  -0.552506   0.264719
Si   -21.948628   198.888262     0.284127   0.000110  -0.655746   0.284127
Si   -25.074602     0.535403     2.188729   0.009668  -0.573175   0.268615
Si   -53.638773    38.854129     1.961333   0.449164   0.053905   0.041220
Si   -53.670454    35.522965     0.056356   0.417483   0.048475   0.056356
Si   -53.706528    32.189998     1.990011   0.381409   0.041241   0.069898
Si   -50.529296    34.398887     1.991385   0.423109   0.032975   0.071272
Si   -52.893786    34.409116     1.983571   0.410268   0.043203   0.063458
Si   -50.570654    31.061676     0.085412   0.381751   0.021497   0.085412
Si   -50.613756    27.723351     2.017633   0.338650   0.008906   0.097520
Si   -47.439637    29.926278     2.023257   0.377237  -0.005323   0.103143
Si   -49.798369    29.943772     2.012971   0.370153   0.012171   0.092858
Si   -47.486574    26.583624     0.115182   0.330300  -0.022243   0.115182
Si   -47.532715    23.241377     2.045140   0.284159  -0.038757   0.125027
Si   -44.364060    25.434993     2.054874   0.317282  -0.062297   0.134761
Si   -46.717306    25.461488     2.042639   0.315685  -0.035802   0.122526
Si   -44.411895    22.089458     0.143910   0.269447  -0.082099   0.143910
Si   -44.457361    18.746027     2.071154   0.223981  -0.099796   0.151041
Si   -41.294413    20.928018     2.084286   0.251398  -0.134961   0.164173
Si   -43.643852    20.963804     2.070865   0.253607  -0.099175   0.150752
Si   -41.339635    17.583068     0.170203   0.206175  -0.154177   0.170203
Si   -41.382068    14.241397     2.094760   0.163743  -0.170115   0.174647
Si   -38.223487    16.411290     2.110251   0.186792  -0.217378   0.190138
Si   -40.571269    16.455190     2.096411   0.190658  -0.173478   0.176298
Si   -38.264476    13.069821     0.193376   0.145803  -0.233112   0.193376
Si   -38.303037     9.732049     2.115691   0.107242  -0.245152   0.195578
Si   -35.146975    11.890919     2.132473   0.127773  -0.303437   0.212360
Si   -37.494852    11.941030     2.118791   0.131544  -0.253326   0.198678
Si   -35.183618     8.554460     0.213525   0.091129  -0.314162   0.213525
Si   -35.218550     5.221541     2.134304   0.056197  -0.321348   0.214191
Si   -32.063389     7.371168     2.151491   0.075826  -0.388877   0.231378
Si   -34.412400     7.425677     2.138276   0.078464  -0.334368   0.218163
Si   -32.096405     4.039895     0.231376   0.042811  -0.394416   0.231376
Si   -32.128541     0.711715     2.151454   0.010675  -0.396863   0.231341
Si   -28.973131     2.853872     2.168412   0.030553  -0.471861   0.248299
Si   -31.323677     2.911519     2.155722   0.031656  -0.414214   0.235609
Si   -29.003620   199.070964     0.248097   0.000064  -0.473044   0.248097
Si   -52.822662    57.709296     3.779342   0.481392   0.063249  -0.060884
Si   -53.600583    55.489523     3.792395   0.487354   0.060632  -0.047831
Si   -52.795737    51.054474     3.816450   0.508317   0.059895  -0.023776
Si   -49.633240    53.274617     3.800949   0.535282   0.062882  -0.039277
Si   -52.804382    54.381252     1.877426   0.499672   0.060939  -0.042687
Si   -50.419930    51.055095     3.815745   0.532475   0.060515  -0.024481
Si   -49.633238    46.616934     0.004444   0.535285   0.056665   0.004444
Si   -46.457173    48.835404     3.831302   0.575818   0.057980  -0.008924
Si   -49.627006    49.945774     1.902697   0.541517   0.059772  -0.017416
Si   -47.256470    46.614940     0.006981   0.560404   0.054671   0.006981
Si   -46.495649    42.169001     0.039992   0.537341   0.043044   0.039992
Si   -43.308264    44.385976     0.031459   0.589195   0.042863   0.031459
Si   -46.469704    45.503319     1.936311   0.563286   0.051629   0.016198
Si   -44.122253    42.162209     0.046943   0.559089   0.036252   0.046943
Si   -43.390576    37.701688     0.081630   0.506883   0.010042   0.081630
Si   -40.200449    39.914244     0.080929   0.561478   0.005443   0.080929
Si   -43.344495    41.045780     1.978226   0.552965   0.028401   0.058113
Si   -41.025775    37.685613     0.093578   0.520035  -0.006033   0.093578
Si   -40.316336    33.206453     0.125996   0.445592  -0.050882   0.125996
Si   -37.134347    35.406479     0.134752   0.492049  -0.068011   0.134752
Si   -40.257357    36.561440     2.025898   0.504571  -0.021628   0.105785
Si   -37.962198    33.175966     0.142247   0.448081  -0.081368   0.142247
Si   -37.259890    28.682983     0.168444   0.366506  -0.140040   0.168444
Si   -34.090370    30.862290     0.185543   0.400495  -0.177889   0.185543
Si   -37.199419    32.043449     2.074142   0.426977  -0.105307   0.154029
Si   -34.913234    28.636684     0.187102   0.361514  -0.186339   0.187102
Si   -34.205124    24.141492     0.205083   0.285741  -0.247220   0.205083
Si   -31.044607    26.299350     0.227338   0.310726  -0.306517   0.227338
Si   -34.150955    27.498942     2.117279   0.339909  -0.215503   0.197166
Si   -31.860818    24.083161     0.224002   0.278398  -0.305551   0.224002
Si   -31.142087    19.595479     0.234243   0.213246  -0.358922   0.234243
Si   -27.985685    21.737810     0.258240   0.234116  -0.433746   0.258240
Si   -31.096007    22.944511     2.151912   0.259326  -0.335624   0.231799
Si   -28.796814    19.530814     0.251892   0.206870  -0.423587   0.251892
Si   -28.068069    15.054236     0.256376   0.151733  -0.465854   0.256376
Si   -24.913127    17.188144     0.279601   0.171142  -0.549101   0.279601
Si   -28.028864    18.394023     2.177687   0.190937  -0.451800   0.257573
Si   -25.720771    14.987723     0.272032   0.147382  -0.532366   0.272032
Si   -24.984064    10.521407     0.273152   0.100206  -0.564371   0.273152
Si   -21.829738    12.652293     0.294108   0.119000  -0.650641   0.294108
Si   -24.950117    13.853693     2.196227   0.134153  -0.557818   0.276114
Si   -22.634831    10.455646     0.286684   0.097790  -0.630132   0.286684
Si   -21.892190     5.996878     0.286657   0.056548  -0.654589   0.286657
Si   -18.738269     8.128401     0.304565   0.074938  -0.740222   0.304565
Si   -21.862090     9.324217     2.209888   0.086648  -0.652984   0.289775
Si   -19.541489     5.933141     0.298254   0.055600  -0.718326   0.298254
Si   -18.794978     1.478550     0.298972   0.018229  -0.738606   0.298972
Si   -15.641333     3.613397     0.313438   0.036342  -0.820914   0.313438
Si   -18.767304     4.803699     2.221042   0.045903  -0.739191   0.300929
Si   -16.443441     1.417382     0.308941   0.018117  -0.799774   0.308941
Si   -12.541969   198.647667     0.322767   0.000175  -0.896341   0.322767
Si   -15.668557     0.289086     2.231819   0.009118  -0.819492   0.311706
Si   -53.589077    52.162955     1.890407   0.498859   0.059797  -0.029706
Si   -53.587402    48.837016     3.828988   0.500535   0.059592  -0.011238
Si   -53.595699    45.510763     1.927169   0.492237   0.059072   0.007056
Si   -50.421921    47.727014     1.916809   0.530484   0.058168  -0.003304
Si   -52.797484    47.728041     1.915433   0.506570   0.059194  -0.004680
Si   -50.435541    44.398106     0.017413   0.516864   0.054993   0.017413
Si   -50.459436    41.067362     1.957158   0.492969   0.049982   0.037045
Si   -47.277192    43.282405     1.950564   0.539682   0.047870   0.030450
Si   -49.651259    43.286796     1.945684   0.517263   0.052261   0.025570
Si   -47.308977    39.947175     0.052201   0.507896   0.038374   0.052201
Si   -47.348641    36.609015     1.991815   0.468233   0.025947   0.071702
Si   -44.163672    38.820880     1.990912   0.517670   0.020657   0.070799
Si   -46.531934    38.831628     1.981815   0.501057   0.031404   0.061702
Si   -44.211799    35.476246     0.091487   0.469543   0.001756   0.091487
Si   -44.262830    32.129481     2.029015   0.418512  -0.019275   0.108902
Si   -41.082574    34.333098     2.035012   0.463237  -0.032814   0.114899
Si   -43.441780    34.354578     2.021775   0.455679  -0.011335   0.101662
Si   -41.139502    30.979592     0.132089   0.406309  -0.060587   0.132089
Si   -41.194314    27.626843     2.065758   0.351496  -0.087603   0.145645
Si   -38.023274    29.816072     2.078370   0.387005  -0.115529   0.158257
Si   -40.373955    29.851433     2.062107   0.387973  -0.080168   0.141994
Si   -38.079819    26.459114     0.170247   0.330459  -0.146753   0.170247
Si   -38.131748    23.105871     2.099206   0.278531  -0.174263   0.179092
Si   -34.969346    25.277782     2.116714   0.305401  -0.219508   0.196601
Si   -37.315269    25.326283     2.099150   0.311127  -0.171007   0.179036
Si   -35.019924    21.924160     0.203137   0.254823  -0.247396   0.203137
Si   -35.065853    18.575425     2.127667   0.208895  -0.270398   0.207554
Si   -31.908862    20.731793     2.147771   0.230354  -0.331186   0.227658
Si   -34.253900    20.789485     2.130487   0.236965  -0.273494   0.210374
Si   -31.952306    17.385544     0.229721   0.186910  -0.351701   0.229721
Si   -31.992037    14.043684     2.150893   0.147179  -0.367828   0.230780
Si   -28.837579    16.188818     2.171535   0.166105  -0.439849   0.251422
Si   -31.183867    16.251275     2.155535   0.171465  -0.377392   0.235422
Si   -28.874879    12.850552     0.250564   0.128805  -0.452382   0.250564
Si   -28.909442     9.515507     2.169746   0.094242  -0.461694   0.249633
Si   -25.755893    11.653788     2.189462   0.112259  -0.540568   0.269348
Si   -28.104053    11.717791     2.175155   0.115748  -0.476565   0.255042
Si   -25.788457     8.322095     0.267161   0.079696  -0.546527   0.267161
Si   -25.819155     4.992427     2.185707   0.048998  -0.550462   0.265594
Si   -22.665765     7.127324     2.203585   0.066856  -0.632721   0.283472
Si   -25.015659     7.191028     2.190975   0.068611  -0.569017   0.270862
Si   -22.694975     3.799984     0.281369   0.037646  -0.634328   0.281369
Si   -22.723199     0.473575     2.200509   0.009422  -0.635003   0.280396
Si   -19.569625     2.607713     2.216009   0.027464  -0.718021   0.295896
Si   -21.920785     2.670234     2.204885   0.027953  -0.655500   0.284772
Si   -19.596963   198.826143     0.295096   0.000126  -0.717865   0.295096
Si   -52.958677    71.040282     3.720793   0.345377   0.091302  -0.119434
Si   -53.719229    68.812708     3.731363   0.368708   0.080883  -0.108863
Si   -52.881812    64.371199     3.746761   0.422242   0.073686  -0.093465
Si   -49.755177    66.609133     3.726233   0.413345   0.094463  -0.113993
Si   -52.918905    67.705047     1.812785   0.385149   0.081800  -0.107328
Si   -50.516196    64.380636     3.739285   0.436209   0.083122  -0.100941
Si   -49.679250    59.937123     3.760056   0.489273   0.073921  -0.080171
Si   -46.545725    62.173288     3.736975   0.487266   0.092930  -0.103251
Si   -49.714735    63.272000     1.821994   0.453787   0.083065  -0.098119
Si   -47.308987    59.944541     3.753170   0.507886   0.081338  -0.087056
Si   -46.477002    55.499556     3.781048   0.555988   0.070665  -0.059178
Si   -43.331088    57.732305     3.755799   0.566371   0.086258  -0.084427
Si   -46.506781    58.834861     1.837764   0.526210   0.080237  -0.082349
Si   -44.100619    55.504194     3.775845   0.580723   0.075303  -0.064381
Si   -43.283625    51.057566     3.812783   0.613835   0.062987  -0.027443
Si   -40.117212    53.285883     3.787208   0.644716   0.074148  -0.053018
Si   -43.299263    54.393391     1.863225   0.598196   0.073078  -0.056888
Si   -40.901042    51.058693     3.811353   0.644769   0.064114  -0.028873
Si   -40.117198    46.606199     0.018116   0.644729   0.045931   0.018116
Si   -36.924120    48.831085     3.837432   0.702276   0.053661  -0.002794
Si   -40.104914    49.946039     1.902662   0.657013   0.060038  -0.017451
Si   -37.733766    46.601792     0.023753   0.676513   0.041523   0.023753
Si   -37.002627    42.129835     0.077845   0.623770   0.003878   0.077845
Si   -33.793996    44.349876     0.070485   0.696869   0.006763   0.070485
Si   -36.951070    45.483666     1.959909   0.675326   0.031976   0.039796
Si   -34.631682    42.111659     0.093587   0.643065  -0.014299   0.093587
Si   -33.947350    37.605252     0.145135   0.543514  -0.086393   0.145135
Si   -30.753701    39.801107     0.158271   0.601632  -0.107694   0.158271
Si   -33.868002    40.980007     2.032858   0.622862  -0.037372   0.112745
Si   -31.596727    37.559503     0.169995   0.542489  -0.132143   0.169995
Si   -30.920062    33.031796     0.207435   0.435271  -0.225538   0.207435
Si   -27.749282    35.183317     0.237173   0.470519  -0.291173   0.237173
Si   -30.842931    36.412013     2.108133   0.512402  -0.171055   0.188020
Si   -28.579018    32.958427     0.235768   0.424666  -0.298908   0.235768
Si   -27.883617    28.442005     0.255249   0.336185  -0.381018   0.255249
Si   -24.720310    30.560996     0.291440   0.363960  -0.479183   0.291440
Si   -27.821808    31.806402     2.169298   0.397993  -0.342355   0.249185
Si   -25.540404    28.356698     0.281685   0.327749  -0.466325   0.281685
Si   -24.827281    23.865414     0.287081   0.256989  -0.523298   0.287081
Si   -21.663695    25.973614     0.322286   0.285043  -0.632254   0.322286
Si   -24.776945    27.210025     2.210214   0.307325  -0.504421   0.290101
Si   -22.479626    23.781073     0.309236   0.252995  -0.607639   0.309236
Si   -21.755367    19.310906     0.306254   0.193371  -0.643495   0.306254
Si   -18.591899    21.420853     0.337040   0.221307  -0.750703   0.337040
Si   -21.711995    22.641640     2.233992   0.236743  -0.638494   0.313879
Si   -19.404897    19.232671     0.323822   0.192192  -0.721730   0.323822
Si   -18.672786    14.776244     0.317065   0.140421  -0.743845   0.317065
Si   -15.511051    16.893031     0.342286   0.166624  -0.844215   0.342286
Si   -18.634669    18.099103     2.246183   0.178538  -0.746720   0.326070
Si   -16.320937    14.705334     0.330570   0.140621  -0.814756   0.330570
Si   -15.582385    10.257035     0.323238   0.095290  -0.828744   0.323238
Si   -12.422930    12.383106     0.342743   0.119213  -0.919828   0.342743
Si   -15.548769    13.576123     2.251631   0.128906  -0.835389   0.331518
Si   -13.229872    10.193679     0.333399   0.096154  -0.892100   0.333399
Si   -12.486444     5.749272     0.327652   0.055699  -0.902195   0.327652
Si    -9.328988     7.886738     0.341640   0.077623  -0.981884   0.341640
Si   -12.456219     9.067726     2.253957   0.085925  -0.909474   0.333844
Si   -10.133769     5.693639     0.335126   0.056726  -0.957828   0.335126
Si    -9.387831     1.249121     0.332440   0.018781  -0.968034   0.332440
Si    -6.231887     3.400243     0.341133   0.039193  -1.034068   0.341133
Si    -9.359287     4.569999     2.255746   0.047325  -0.972890   0.335632
Si    -7.035634     1.201370     0.337718   0.019329  -1.015786   0.337718
Si    -3.135307   198.463613     0.342578   0.000242  -1.080394   0.342578
Si    -6.261217     0.079039     2.258778   0.009863  -1.029539   0.338665
Si   -53.682068    65.479199     1.824245   0.405869   0.073108  -0.095868
Si   -53.648732    62.147379     3.758984   0.439205   0.067021  -0.081242
Si   -53.620975    58.817511     1.854974   0.466962   0.062886  -0.065139
Si   -50.480045    61.045960     1.836000   0.472360   0.074179  -0.084113
Si   -52.849094    61.039215     1.842194   0.454960   0.067435  -0.077919
Si   -50.450453    57.713659     3.774742   0.501952   0.067612  -0.065485
Si   -50.429774    54.383600     1.874686   0.522631   0.063287  -0.045427
Si   -47.277200    56.609296     1.854810   0.539674   0.071827  -0.065303
Si   -49.651264    56.604764     1.859708   0.517259   0.067295  -0.060405
Si   -47.256475    53.276753     3.798394   0.560399   0.065017  -0.041832
Si   -47.249257    49.945845     1.902688   0.567617   0.059843  -0.017425
Si   -44.080340    52.168624     1.883545   0.601002   0.065466  -0.036568
Si   -46.459722    52.166867     1.885716   0.573269   0.063709  -0.034397
Si   -44.077329    48.834637     3.832381   0.604013   0.057213  -0.007845
Si   -44.092080    45.499842     1.940530   0.589262   0.048151   0.020417
Si   -40.904897    47.720533     1.925435   0.640914   0.051687   0.005322
Si   -43.286811    47.722634     1.922623   0.610649   0.053788   0.002510
Si   -40.930614    44.380076     0.038148   0.615196   0.036963   0.038148
Si   -40.973148    41.035117     1.988013   0.572663   0.017738   0.067900
Si   -37.775352    43.252616     1.981913   0.634927   0.018081   0.061800
Si   -40.151281    43.262777     1.971564   0.610647   0.028242   0.051451
Si   -37.833293    39.897107     0.094560   0.576986  -0.011695   0.094560
Si   -37.897769    36.537184     2.041395   0.512510  -0.045884   0.121282
Si   -34.706787    38.741673     2.048375   0.567960  -0.058551   0.128262
Si   -37.066928    38.769737     2.029696   0.559468  -0.030487   0.109583
Si   -34.781522    35.370031     0.154440   0.493225  -0.104459   0.154440
Si   -34.850749    32.000982     2.093632   0.423999  -0.147775   0.173519
Si   -31.676690    34.178233     2.113098   0.462526  -0.187680   0.192985
Si   -34.022483    34.231493     2.088900   0.468381  -0.134420   0.168786
Si   -31.746284    30.805290     0.208150   0.392932  -0.234889   0.208150
Si   -31.807088    27.440612     2.138020   0.332127  -0.273833   0.217907
Si   -28.644598    29.588999     2.164969   0.359086  -0.342603   0.244856
Si   -30.986557    29.661284     2.139870   0.368776  -0.270317   0.219757
Si   -28.701492    26.229456     0.249521   0.302193  -0.376412   0.249521
Si   -28.751779    22.877306     2.171611   0.251905  -0.402828   0.251498
Si   -25.593064    25.007548     2.200590   0.275089  -0.489742   0.280477
Si   -27.937655    25.086613     2.177888   0.282146  -0.410677   0.257775
Si   -25.640082    21.663892     0.277993   0.228071  -0.507664   0.277993
Si   -25.682400    18.324245     2.195130   0.185753  -0.521578   0.275017
Si   -22.524495    20.447506     2.222521   0.208126  -0.615472   0.302407
Si   -24.872413    20.525163     2.203494   0.211856  -0.537815   0.283381
Si   -22.564890    17.115592     0.296248   0.167731  -0.621653   0.296248
Si   -22.601443    13.785031     2.211080   0.131178  -0.626481   0.290967
Si   -19.444252    15.908292     2.235041   0.152837  -0.720375   0.314928
Si   -21.794398    15.981164     2.219736   0.154340  -0.647503   0.299623
Si   -19.479610    12.583486     0.307733   0.117479  -0.719448   0.307733
Si   -19.511754     9.258410     2.222302   0.085335  -0.718791   0.302189
Si   -16.355599    11.385615     2.242071   0.105959  -0.808741   0.321958
Si   -18.707042    11.452614     2.230037   0.106165  -0.741742   0.309924
Si   -16.386946     8.064278     0.315561   0.074612  -0.804344   0.315561
Si   -16.415924     4.741504     2.231363   0.045634  -0.801385   0.311250
Si   -13.260806     6.875347     2.246698   0.065220  -0.884698   0.326585
Si   -15.612917     6.936072     2.237368   0.064758  -0.823972   0.317255
Si   -13.289463     3.554362     0.322255   0.036564  -0.879949   0.322255
Si   -13.316846     0.230817     2.240409   0.009180  -0.877761   0.320296
Si   -10.162547     2.373664     2.251228   0.027948  -0.952070   0.331115
Si   -12.514691     2.427893     2.244106   0.027452  -0.897841   0.323992
Si   -10.190304   198.593907     0.329775   0.000191  -0.950101   0.329775
Si   -53.123073    84.382954     3.688808   0.180981   0.131039  -0.151418
Si   -53.880757    82.152930     3.695665   0.207180   0.118171  -0.144561
Si   -53.041257    77.712446     3.701721   0.262797   0.111999  -0.138505
Si   -49.930126    79.965776     3.683370   0.238396   0.148173  -0.156856
Si   -53.082469    81.048163     1.774445   0.221585   0.121982  -0.145669
Si   -50.686120    77.732612     3.691890   0.266286   0.132165  -0.148337
Si   -49.842612    73.287410     3.700897   0.325910   0.121274  -0.139330
Si   -46.732906    75.544811     3.679517   0.300085   0.161520  -0.160709
Si   -49.886763    76.626944     1.771129   0.281759   0.135074  -0.148984
Si   -47.486574    73.308196     3.690165   0.330300   0.142060  -0.150062
Si   -46.637721    68.857507     3.703122   0.395270   0.125682  -0.137104
Si   -43.529340    71.118679     3.677786   0.368119   0.169698  -0.162440
Si   -46.685690    72.201293     1.770026   0.347300   0.143734  -0.150087
Si   -44.280009    68.878295     3.691332   0.401333   0.146470  -0.148894
Si   -43.424413    64.421437     3.709962   0.473046   0.123924  -0.130264
Si   -40.316365    66.685700     3.679319   0.445562   0.171031  -0.160907
Si   -43.476948    67.769781     1.772129   0.420512   0.146534  -0.147984
Si   -41.063496    64.441283     3.697053   0.482315   0.143769  -0.143173
Si   -40.200478    59.977865     3.724393   0.561449   0.114663  -0.115833
Si   -37.089448    62.243461     3.686619   0.536948   0.163104  -0.153607
Si   -40.257387    63.330689     1.779421   0.504540   0.141753  -0.140692
Si   -37.833330    59.995123     3.710747   0.576949   0.131921  -0.129479
Si   -36.966130    55.525728     3.752196   0.660266   0.096837  -0.088030
Si   -33.842058    57.788253     3.705518   0.648806   0.142206  -0.134708
Si   -37.023241    58.881886     1.796024   0.603155   0.127261  -0.124089
Si   -34.586982    55.537620     3.739759   0.687766   0.108728  -0.100467
Si   -33.735402    51.063977     3.804178   0.755463   0.069397  -0.036048
Si   -30.569841    53.315543     3.750758   0.785491   0.103808  -0.089468
Si   -33.773502    54.421291     1.830874   0.717363   0.100978  -0.089240
Si   -31.337974    51.066994     3.799875   0.801242   0.072415  -0.040351
Si   -30.569797    46.576989     0.054497   0.785535   0.016721   0.054497
Si   -27.325211    48.816882     0.018096   0.894590   0.039458   0.018096
Si   -30.533030    49.946262     1.902626   0.822303   0.060260  -0.017487
Si   -28.178530    46.559022     0.074824   0.825155  -0.001246   0.074824
Si   -27.551138    41.989925     0.176604   0.668663  -0.136032   0.176604
Si   -24.337101    44.158501     0.207064   0.747169  -0.184612   0.207064
Si   -27.422430    45.412295     2.032408   0.797371  -0.039396   0.112294
Si   -25.213782    41.894700     0.225582   0.654371  -0.231258   0.225582
Si   -24.578169    37.299618     0.280514   0.506100  -0.392028   0.280514
Si   -21.402387    39.343504     0.348851   0.546351  -0.565298   0.348851
Si   -24.479012    40.706069     2.178271   0.605258  -0.311310   0.258158
Si   -22.239123    37.156975     0.330374   0.493498  -0.534671   0.330374
Si   -21.549846    32.644238     0.339624   0.398892  -0.613097   0.339624
Si   -18.361059    34.679604     0.404251   0.452148  -0.794886   0.404251
Si   -21.482018    35.987163     2.266642   0.466720  -0.595905   0.346529
Si   -19.194410    32.517830     0.377449   0.402680  -0.739505   0.377449
Si   -18.489658    28.058473     0.365438   0.323549  -0.764551   0.365438
Si   -15.298061    30.120353     0.417610   0.379614  -0.919826   0.417610
Si   -18.429023    31.372096     2.303430   0.384184  -0.776661   0.383317
Si   -16.129749    27.956303     0.392058   0.331809  -0.866720   0.392058
Si   -15.419094    23.517713     0.372455   0.258581  -0.870999   0.372455
Si   -12.233402    25.603907     0.412483   0.308741  -1.001961   0.412483
Si   -15.362748    26.822963     2.312886   0.314927  -0.891483   0.392773
Si   -13.060253    23.433621     0.390614   0.265773  -0.955091   0.390614
Si   -12.342264    19.003289     0.369809   0.199879  -0.951112   0.369809
Si    -9.164573    21.108730     0.399308   0.242038  -1.062827   0.399308
Si   -12.292123    22.306706     2.308971   0.250020  -0.973428   0.388858
Si    -9.985151    18.933028     0.381745   0.205344  -1.021373   0.381745
Si    -9.258340    14.507316     0.362964   0.148272  -1.012773   0.362964
Si    -6.087327    16.630676     0.383523   0.183753  -1.106569   0.383523
Si    -9.215181    17.810658     2.299103   0.191431  -1.035165   0.378990
Si    -6.902217    14.449737     0.370326   0.152746  -1.070353   0.370326
Si    -6.167681    10.026507     0.355283   0.103400  -1.059272   0.355283
Si    -3.001358    12.169429     0.368264   0.134191  -1.133505   0.368264
Si    -6.130276    13.331410     2.287557   0.140804  -1.080101   0.367444
Si    -3.812205     9.981852     0.359257   0.107227  -1.103926   0.359257
Si    -3.072970     5.557788     0.348809   0.062579  -1.093679   0.348809
Si     0.090001     7.722694     0.355280   0.090018  -1.145928   0.355280
Si    -3.038963     8.866964     2.276873   0.096586  -1.110236   0.356760
Si    -0.718523     5.526282     0.350189   0.065377  -1.125185   0.350189
Si     0.021845     1.097126     0.344661   0.021862  -1.120029   0.344661
Si     0.054968     4.413806     2.268452   0.054985  -1.129084   0.348339
Si   -53.840151    78.818091     1.782181   0.247785   0.109066  -0.137932
Si   -53.799286    75.482743     3.710387   0.288651   0.099451  -0.129840
Si   -53.758697    72.147418     1.799936   0.329239   0.089859  -0.120177
Si   -50.642784    74.394076     1.780746   0.309621   0.119362  -0.139368
Si   -52.999784    74.376293     1.790314   0.304270   0.101579  -0.129799
Si   -50.599279    71.055404     3.711669   0.353126   0.106424  -0.128557
Si   -50.556593    67.717335     1.804343   0.395812   0.094088  -0.115771
Si   -47.439641    69.965509     1.782098   0.377232   0.125106  -0.138015
Si   -49.798366    69.947872     1.792401   0.370156   0.107470  -0.127712
Si   -47.393058    66.623345     3.716669   0.423816   0.108675  -0.123558
Si   -47.348651    63.282720     1.813552   0.468223   0.093784  -0.106561
Si   -44.228660    65.531107     1.787578   0.452683   0.125015  -0.132535
Si   -46.590354    65.514474     1.798583   0.442637   0.108383  -0.121530
Si   -44.179197    62.185588     3.727287   0.502145   0.105230  -0.112939
Si   -44.135056    58.843044     1.830011   0.546286   0.088419  -0.090102
Si   -41.007539    61.089529     1.799711   0.538271   0.117749  -0.120402
Si   -43.374452    61.075164     1.811058   0.523008   0.103384  -0.109055
Si   -40.957538    57.741408     3.746927   0.588273   0.095361  -0.093300
Si   -40.919876    54.398048     1.857740   0.625934   0.077735  -0.062373
Si   -37.775382    56.639598     1.823395   0.634897   0.102129  -0.096718
Si   -40.151304    56.629317     1.833759   0.610624   0.091848  -0.086354
Si   -37.733784    53.290410     3.781555   0.676495   0.078675  -0.058672
Si   -37.718462    49.946099     1.902654   0.691817   0.060097  -0.017460
Si   -34.540625    52.180538     1.867981   0.734122   0.077381  -0.052132
Si   -36.929727    52.176432     1.873459   0.696669   0.073275  -0.046654
Si   -34.533313    48.829179     3.840198   0.741434   0.051755  -0.000028
Si   -34.568030    45.474766     1.970248   0.706718   0.023075   0.050135
Si   -31.349123    47.704029     1.947917   0.790093   0.035183   0.027804
Si   -33.743434    47.710190     1.939523   0.747430   0.041344   0.019410
Si   -31.416349    44.331014     0.088728   0.722867  -0.012099   0.088728
Si   -31.507051    40.946323     2.056273   0.632165  -0.071056   0.136160
Si   -28.293989    43.150542     2.065650   0.709695  -0.083993   0.145537
Si   -30.656198    43.193306     2.034569   0.699135  -0.041229   0.114456
Si   -28.407254    39.739151     0.191577   0.596430  -0.169650   0.191577
Si   -28.501446    36.340927     2.139596   0.502238  -0.242141   0.219483
Si   -25.326042    38.473461     2.178797   0.542111  -0.326763   0.258684
Si   -27.661138    38.577074     2.135298   0.558664  -0.223149   0.215185
Si   -25.411079    35.083623     0.274072   0.457074  -0.390867   0.274072
Si   -25.480648    31.713904     2.200425   0.387505  -0.434853   0.280312
Si   -22.311302    33.800956     2.248751   0.421319  -0.564956   0.328638
Si   -24.655427    33.921960     2.209457   0.428842  -0.443952   0.289344
Si   -22.373951    30.456016     0.323223   0.358670  -0.584163   0.323223
Si   -22.429677    27.116860     2.236493   0.302944  -0.597586   0.316380
Si   -19.256108    29.199671     2.281330   0.340981  -0.731930   0.361217
Si   -21.609896    29.307385     2.251210   0.338842  -0.624216   0.331097
Si   -19.311402    25.878889     0.346914   0.285688  -0.726979   0.346914
Si   -19.360823    22.556346     2.254580   0.236267  -0.723788   0.334467
Si   -16.187322    24.649932     2.291998   0.274235  -0.847358   0.371885
Si   -18.543765    24.740937     2.270217   0.269442  -0.756353   0.350104
Si   -16.237766    21.338301     0.355232   0.223792  -0.833255   0.355232
Si   -16.281986    18.023096     2.261691   0.179572  -0.822727   0.341578
Si   -13.112100    20.129983     2.291146   0.213926  -0.932996   0.371033
Si   -15.468179    20.207209     2.275920   0.209496  -0.855769   0.355807
Si   -13.156750    16.821479     0.355299   0.169276  -0.915766   0.355299
Si   -13.195580    13.509172     2.262994   0.130446  -0.902340   0.342880
Si   -10.030009    15.629785     2.284971   0.160485  -0.998883   0.364858
Si   -12.385385    15.695129     2.274722   0.156759  -0.933538   0.354609
Si   -10.068753    12.321887     0.351735   0.121742  -0.981047   0.351735
Si   -10.102896     9.009758     2.262042   0.087598  -0.967443   0.341929
Si    -6.940863    11.145438     2.277265   0.114100  -1.048918   0.357151
Si    -9.295775    11.199238     2.270766   0.110837  -0.995118   0.350653
Si    -6.975083     7.835870     0.347525   0.079880  -1.032752   0.347525
Si    -7.006268     4.521155     2.261231   0.048695  -1.021735   0.341118
Si    -3.846819     6.674042     2.270353   0.072612  -1.086002   0.350240
Si    -6.201104     6.716087     2.266724   0.069977  -1.043958   0.346611
Si    -3.878742     3.359886     0.344547   0.040689  -1.074426   0.344547
Si    -3.909183     0.039446     2.262098   0.010248  -1.069132   0.341985
Si    -0.751643     2.211775     2.265560   0.032257  -1.113959   0.345447
Si    -3.104692     2.241981     2.264249   0.030857  -1.083752   0.344136
Si    -0.783641   198.433836     0.343868   0.000259  -1.110171   0.343868
Si   -53.278753    97.706440     3.677719   0.025301   0.151592  -0.162507
Si   -54.037309    95.479590     3.681580   0.050628   0.141898  -0.158646
Si   -53.202073    91.048296     3.681067   0.101981   0.144915  -0.159159
Si   -50.092245    93.304825     3.666102   0.076277   0.184289  -0.174125
Si   -53.240614    94.378345     1.758765   0.063440   0.149230  -0.161348
Si   -50.850202    91.074512     3.671091   0.102203   0.171131  -0.169135
Si   -50.013384    86.639232     3.672216   0.155139   0.170162  -0.168011
Si   -46.905283    88.902703     3.655185   0.127707   0.216478  -0.185041
Si   -50.053278    89.973129     1.748483   0.115245   0.178325  -0.171631
Si   -47.662025    86.668381     3.661377   0.154848   0.199311  -0.178849
Si   -46.822580    82.227955     3.664242   0.210411   0.193197  -0.175984
Si   -43.717289    84.498931     3.644698   0.180170   0.247017  -0.195528
Si   -46.864736    85.566539     1.738937   0.168254   0.206047  -0.181176
Si   -44.471996    82.260016     3.652265   0.209347   0.225257  -0.187961
Si   -43.628337    77.813306     3.657110   0.269122   0.212859  -0.183116
Si   -40.527041    80.092798     3.634263   0.234886   0.275195  -0.205963
Si   -43.674044    81.157464     1.729944   0.223415   0.231283  -0.190169
Si   -41.278666    77.848517     3.643548   0.267144   0.248070  -0.196678
Si   -40.428573    73.394209     3.650894   0.333355   0.228072  -0.189332
Si   -37.332668    75.684084     3.623398   0.293728   0.300792  -0.216828
Si   -40.479581    76.745072     1.721294   0.282347   0.253202  -0.198819
Si   -38.079850    73.433217     3.635040   0.330428   0.267081  -0.205186
Si   -37.220173    68.969400     3.645973   0.406223   0.237575  -0.194254
Si   -34.131568    71.273105     3.611507   0.359296   0.324125  -0.228719
Si   -37.278946    72.328728     1.712822   0.347451   0.271170  -0.207291
Si   -34.872370    69.013473     3.626700   0.402378   0.281649  -0.213526
Si   -33.998235    64.536752     3.643521   0.492630   0.239238  -0.196706
Si   -30.920118    66.860799     3.597832   0.435214   0.346130  -0.242394
Si   -34.068629    67.907732     1.704558   0.422236   0.284485  -0.215555
Si   -31.651294    64.588097     3.618942   0.487922   0.290584  -0.221285
Si   -30.753766    60.091456     3.646997   0.601567   0.228254  -0.193229
Si   -27.692718    62.448998     3.581291   0.527083   0.368640  -0.258935
Si   -30.842992    63.480564     1.697137   0.512341   0.291628  -0.222976
Si   -28.407327    60.153512     3.613681   0.596357   0.290310  -0.226545
Si   -27.465940    55.620725     3.668107   0.753861   0.191834  -0.172119
Si   -24.437988    58.041816     3.559762   0.646282   0.395770  -0.280464
Si   -27.590585    59.042326     1.693293   0.629216   0.287702  -0.226820
Si   -25.115089    55.695849     3.619529   0.753064   0.266958  -0.220697
Si   -24.090178    51.092973     3.762856   0.994092   0.098393  -0.077370
Si   -21.116165    53.660666     3.523331   0.832573   0.448931  -0.316895
Si   -24.275862    54.572513     1.706388   0.808407   0.252200  -0.213725
Si   -21.646874    51.135956     3.710993   1.085747   0.141376  -0.129233
Si   -21.115990    46.232342     0.281859   0.832748  -0.327927   0.281859
Si   -17.694058    47.407872     0.706291   1.119149  -1.369552   0.706291
Si   -20.730107    49.946509     1.902479   1.218631   0.060507  -0.017634
Si   -18.802182    45.698910     0.479471   0.794907  -0.861358   0.479471
Si   -18.190822    41.254154     0.462051   0.622385  -0.871803   0.462051
Si   -14.878505    43.077484     0.627769   0.799170  -1.265629   0.627769
Si   -18.057908    44.475692     2.435476   0.755299  -0.975998   0.515363
Si   -15.788618    41.028615     0.543004   0.672940  -1.097342   0.543004
Si   -15.136419    36.671041     0.488022   0.541256  -1.020605   0.488022
Si   -11.871765    38.661854     0.586261   0.670378  -1.246947   0.586261
Si   -15.028712    39.903047     2.462715   0.648963  -1.114332   0.542602
Si   -12.747364    36.544558     0.530905   0.578662  -1.147088   0.530905
Si   -12.083224    32.168801     0.478317   0.458919  -1.088533   0.478317
Si    -8.847536    34.222744     0.544566   0.559076  -1.251747   0.544566
Si   -11.987137    35.427433     2.445015   0.555006  -1.155635   0.524902
Si    -9.707696    32.076878     0.503428   0.482799  -1.180456   0.503428
Si    -9.033080    27.685039     0.456267   0.373532  -1.137984   0.456267
Si    -5.819899    29.767812     0.501981   0.451181  -1.272366   0.501981
Si    -8.947994    30.959880     2.415618   0.458618  -1.188876   0.495505
Si    -6.667028    27.609188     0.470615   0.387935  -1.213835   0.470615
Si    -5.977159    23.211649     0.429980   0.293921  -1.177063   0.429980
Si    -2.780399    25.313269     0.460529   0.355150  -1.292598   0.460529
Si    -5.905518    26.492942     2.382278   0.365563  -1.221503   0.462165
Si    -3.615624    23.149022     0.437116   0.303808  -1.239690   0.437116
Si    -2.908985    18.754107     0.403736   0.226564  -1.200294   0.403736
Si     0.277524    20.877681     0.422593   0.277541  -1.293875   0.422593
Si    -2.850339    22.036613     2.349129   0.285209  -1.243521   0.429016
Si    -0.548713    18.707771     0.405959   0.235187  -1.246629   0.405959
Si     0.171053    14.316450     0.380049   0.171070  -1.203639   0.380049
Si     0.220183    17.601071     2.318887   0.220200  -1.244752   0.398774
Si   -53.999006    92.150367     1.763310   0.088930   0.138408  -0.156803
Si   -53.960217    88.819379     3.686333   0.127719   0.133153  -0.153894
Si   -53.920813    85.486811     1.770268   0.167124   0.126319  -0.149845
Si   -50.810718    87.741657     1.754231   0.141688   0.164009  -0.165882
Si   -53.162935    87.716429     1.764235   0.141119   0.138782  -0.155878
Si   -50.770251    84.406851     3.678799   0.182155   0.154937  -0.161427
Si   -50.728700    81.070374     1.764481   0.223705   0.144193  -0.155632
Si   -47.620539    83.331048     1.746043   0.196334   0.187711  -0.174070
Si   -49.972362    83.303346     1.756975   0.196160   0.160010  -0.163138
Si   -47.577442    79.991617     3.672390   0.239431   0.174014  -0.167836
Si   -47.532711    76.650480     1.760196   0.284163   0.158611  -0.159917
Si   -44.427319    78.917343     1.738700   0.254023   0.208318  -0.181413
Si   -46.778634    78.887237     1.750865   0.254356   0.178211  -0.169248
Si   -44.380270    75.572410     3.667261   0.301073   0.189118  -0.172965
Si   -44.330973    72.225780     1.757860   0.350369   0.168222  -0.162254
Si   -41.229180    74.499462     1.732237   0.316630   0.224748  -0.187876
Si   -43.580041    74.466836     1.746104   0.317418   0.192123  -0.174009
Si   -41.176382    71.147895     3.663817   0.369428   0.198914  -0.176409
Si   -41.120707    67.794701     1.758415   0.425103   0.171454  -0.161698
Si   -38.023308    70.076228     1.726926   0.386971   0.235826  -0.193187
Si   -40.373981    70.040747     1.743202   0.387946   0.200345  -0.176911
Si   -37.962235    66.716307     3.663055   0.448044   0.201637  -0.177172
Si   -37.897807    63.355066     1.763910   0.512472   0.166130  -0.156203
Si   -34.805370    65.645836     1.723665   0.469377   0.239745  -0.196448
Si   -37.156500    65.607001     1.743401   0.469896   0.200910  -0.176712
Si   -34.732157    62.274672     3.667414   0.542590   0.194314  -0.172813
Si   -34.656235    58.903527     1.779032   0.618513   0.148903  -0.141081
Si   -31.567792    61.204440     1.725080   0.571423   0.232660  -0.195033
Si   -33.921122    61.162111     1.749780   0.569742   0.190331  -0.170333
Si   -31.476158    57.817208     3.683319   0.663057   0.171161  -0.156907
Si   -31.389684    54.435551     1.815392   0.749532   0.115238  -0.104721
Si   -28.294069    56.742113     1.739598   0.709615   0.204645  -0.180515
Si   -30.656262    56.699242     1.770693   0.699071   0.161774  -0.149420
Si   -28.178593    53.333616     3.730412   0.825091   0.121881  -0.109815
Si   -28.123211    49.946312     1.902614   0.880473   0.060310  -0.017499
Si   -24.942787    52.232504     1.803510   0.925365   0.129346  -0.116604
Si   -27.348026    52.207363     1.832827   0.871776   0.104206  -0.087286
Si   -24.901682    48.805915     0.033878   0.966471   0.028491   0.033878
Si   -25.057769    45.352688     2.077820   0.810384  -0.099003   0.157706
Si   -21.768192    47.544344     2.098656   0.964429  -0.124502   0.178543
Si   -24.142066    47.645918     2.016736   0.942204  -0.022929   0.096623
Si   -22.021743    43.972997     0.292217   0.710878  -0.370116   0.292217
Si   -22.150304    40.536588     2.243355   0.582317  -0.480791   0.323242
Si   -18.949288    42.437911     2.361674   0.647802  -0.796624   0.441561
Si   -21.298357    42.733914     2.258528   0.650381  -0.500621   0.338415
Si   -19.046349    39.140578     0.416601   0.550741  -0.768224   0.416601
Si   -19.125354    35.832149     2.315877   0.471735  -0.750919   0.395764
Si   -15.900582    37.804182     2.406692   0.560976  -0.996042   0.486579
Si   -18.283760    37.976910     2.349513   0.529447  -0.823314   0.429399
Si   -15.988872    34.540176     0.447043   0.472686  -0.934314   0.447043
Si   -16.064087    31.254633     2.336712   0.397471  -0.894124   0.416599
Si   -12.845979    33.291672     2.402489   0.480047  -1.074240   0.482376
Si   -15.223593    33.405550     2.368535   0.454082  -0.960362   0.448422
Si   -12.928998    30.018134     0.444770   0.397028  -1.022045   0.444770
Si   -12.999751    26.730624     2.334920   0.326276  -0.983822   0.414807
Si    -9.795786    28.805083     2.382511   0.394709  -1.126518   0.462398
Si   -12.164417    28.892506     2.361865   0.377726  -1.039095   0.441752
Si    -9.870014    25.522201     0.429496   0.320481  -1.083667   0.429496
Si    -9.932455    22.230896     2.323121   0.258039  -1.049238   0.403008
Si    -6.742146    24.328780     2.356791   0.312817  -1.168510   0.436678
Si    -9.104573    24.400653     2.344818   0.302039  -1.096637   0.424705
Si    -6.804884    21.041731     0.409350   0.250079  -1.129825   0.409350
Si    -6.857522    17.748588     2.307627   0.197441  -1.097235   0.387514
Si    -3.677268    19.866680     2.330245   0.242163  -1.196298   0.410132
Si    -6.036994    19.924152     2.324220   0.234086  -1.138827   0.404107
Si    -3.729177    16.578166     0.388668   0.190255  -1.159079   0.388668
Si    -3.773526    13.283240     2.292028   0.145906  -1.128272   0.371915
Si    -0.599832    15.424028     2.305757   0.184068  -1.204639   0.385644
Si    -2.958629    15.465129     2.303848   0.176919  -1.163538   0.383735
Si    -0.644036    12.132531     0.369935   0.139864  -1.170403   0.369935
Si    -0.683094     8.833246     2.278370   0.100806  -1.143954   0.358256
Si     0.128215    11.023632     2.285839   0.128232  -1.170724   0.365725
Si   -53.432086   110.998793     3.683131  -0.128033   0.141011  -0.157095
Si   -54.189770   108.777467     3.684274  -0.101833   0.136841  -0.155952
Si   -53.354782   104.356552     3.678381  -0.050728   0.150237  -0.161845
Si   -50.244834   106.607755     3.666103  -0.076312   0.184284  -0.174123
Si   -53.393165   107.678608     1.760109  -0.089111   0.146559  -0.160004
Si   -51.003165   104.383582     3.668443  -0.050760   0.177267  -0.171783
Si   -50.168539    99.961136     3.664162  -0.000017   0.189132  -0.176064
Si   -47.058059   102.220442     3.650176  -0.025068   0.231283  -0.190050
Si   -50.206519   103.285651     1.744530  -0.037996   0.187914  -0.175583
Si   -47.816891    99.992664     3.653600  -0.000017   0.220661  -0.186626
Si   -46.982781    95.567110     3.650778   0.050210   0.229417  -0.189448
Si   -43.872900    97.834854     3.635173   0.024559   0.280006  -0.205053
Si   -47.020490    98.895178     1.729913   0.012501   0.231752  -0.190200
Si   -44.631786    95.602912     3.639550   0.049556   0.265220  -0.200676
Si   -43.797698    91.173030     3.637932   0.099761   0.269649  -0.202294
Si   -40.689607    93.449591     3.620646   0.072321   0.329054  -0.219580
Si   -43.835713    94.505493     1.716003   0.061746   0.276378  -0.204110
Si   -41.447885    91.213069     3.625862   0.097925   0.309687  -0.214364
Si   -40.612773    86.778052     3.625123   0.149154   0.308982  -0.215104
Si   -37.507632    89.064158     3.605874   0.118764   0.377933  -0.234353
Si   -40.652032    90.115520     1.702310   0.109896   0.320716  -0.217803
Si   -38.264498    86.822687     3.611860   0.145781   0.353617  -0.228366
Si   -37.426852    82.382134     3.611625   0.199544   0.347375  -0.228602
Si   -34.325751    84.679260     3.589816   0.165113   0.427346  -0.250410
Si   -37.468590    85.725053     1.688091   0.157806   0.364561  -0.232022
Si   -35.080309    82.432399     3.596572   0.194438   0.397640  -0.243655
Si   -34.238220    77.986314     3.596406   0.252644   0.385866  -0.243820
Si   -31.142137    80.297247     3.570989   0.213195   0.479644  -0.269237
Si   -34.283930    81.335050     1.672284   0.206935   0.408869  -0.247829
Si   -31.893455    78.044361     3.578592   0.245761   0.443914  -0.261634
Si   -31.044659    73.593298     3.577917   0.310674   0.427162  -0.262309
Si   -27.954328    75.923087     3.547132   0.265474   0.539795  -0.293095
Si   -31.096057    76.948173     1.653332   0.259275   0.456304  -0.266781
Si   -28.701549    73.663283     3.555725   0.302135   0.497147  -0.284502
Si   -27.843484    69.208987     3.553531   0.376317   0.477162  -0.286695
Si   -24.758904    71.566680     3.514440   0.325366   0.617700  -0.325787
Si   -27.902448    72.570077     1.628736   0.317353   0.512519  -0.291377
Si   -25.501549    69.299095     3.524078   0.366603   0.567270  -0.316148
Si   -24.631430    64.847280     3.517869   0.452839   0.549766  -0.322358
Si   -21.549918    67.248669     3.465622   0.398820   0.734000  -0.374605
Si   -24.699805    68.212869     1.593891   0.384465   0.589622  -0.326222
Si   -22.288579    64.974877     3.475458   0.444042   0.677364  -0.364768
Si   -21.402460    60.549377     3.456401   0.546278   0.686174  -0.383825
Si   -18.310878    59.687859     1.464721   0.502329  -2.392499   1.464721
Si   -21.482089    63.905724     1.538609   0.466649   0.716788  -0.381504
Si   -19.046424    57.426599     1.468546   0.550666  -2.436603   1.468546
Si   -18.110406    53.153719     1.391937   0.702801  -2.275172   1.391937
Si   -14.985253    55.598149     1.318856   0.692422  -2.047898   1.318856
Si   -18.224414    56.402039     3.355344   0.588792  -2.352585   1.435231
Si   -15.686029    53.428595     1.285276   0.775529  -2.000296   1.285276
Si   -14.587015    49.336617     1.026879   1.090660  -1.657963   1.026879
Si   -11.578637    51.502912     1.095812   0.963507  -1.708824   1.095812
Si   -14.811974    52.448321     3.136513   0.865701  -1.871992   1.216400
Si   -12.280710    49.356086     1.001059   1.045316  -1.638494   1.001059
Si   -11.578542    45.064347     0.789394   0.963602  -1.495921   0.789394
Si    -8.401853    47.197453     0.901294   1.004759  -1.579971   0.901294
Si   -11.497712    48.283636     2.862724   1.044432  -1.602366   0.942610
Si    -9.227922    45.035677     0.815384   0.962572  -1.524591   0.815384
Si    -8.602370    40.709769     0.685157   0.804242  -1.416188   0.685157
Si    -5.367958    42.823826     0.772356   0.903123  -1.519287   0.772356
Si    -8.478356    43.946954     2.704144   0.928256  -1.504737   0.784030
Si    -6.230604    40.661539     0.707001   0.824359  -1.464418   0.707001
Si    -5.604088    36.299255     0.611387   0.666993  -1.392391   0.611387
Si    -2.368012    38.399586     0.674259   0.767537  -1.509215   0.674259
Si    -5.481648    39.559786     2.604941   0.789432  -1.457593   0.684827
Si    -3.235890    36.236868     0.623971   0.683542  -1.454778   0.623971
Si    -2.598778    31.854723     0.547143   0.536771  -1.402611   0.547143
Si     0.625582    33.937391     0.589326   0.625600  -1.537099   0.589326
Si    -2.487022    35.124746     2.525144   0.648527  -1.458323   0.605031
Si    -0.234809    31.784447     0.551350   0.549091  -1.472888   0.551350
Si     0.425190    27.410838     0.489271   0.425207  -1.412186   0.489271
Si     0.518883    30.672456     2.454593   0.518900  -1.476301   0.534479
Si   -54.151323   105.455829     1.761968  -0.063387   0.140936  -0.158145
Si   -54.113243   102.132342     3.680918  -0.025306   0.143182  -0.159308
Si   -54.075314    98.806932     1.760639   0.012623   0.143506  -0.159474
Si   -50.965079   101.059794     1.747519  -0.012673   0.179212  -0.172595
Si   -53.316725   101.032512     1.757441  -0.012672   0.151931  -0.162672
Si   -50.927098    97.733671     3.667793   0.025307   0.178823  -0.172433
Si   -50.888907    94.405224     1.748819   0.063498   0.176109  -0.171294
Si   -47.779152    96.665574     1.733946   0.037722   0.219303  -0.186168
Si   -50.130560    96.634186     1.744529   0.037962   0.187916  -0.175584
Si   -47.741012    93.335783     3.655458   0.075861   0.215247  -0.184769
Si   -47.702087    90.003351     1.737748   0.114787   0.208547  -0.182365
Si   -44.593922    92.271614     1.721004   0.087420   0.259654  -0.199110
Si   -46.944512    92.236264     1.732357   0.088479   0.224305  -0.187756
Si   -44.554953    88.937314     3.643650   0.126389   0.251088  -0.196576
Si   -44.514440    85.600076     1.727185   0.166902   0.239583  -0.192928
Si   -41.409043    87.876899     1.708244   0.136768   0.299251  -0.211869
Si   -43.758374    87.837491     1.720621   0.139085   0.259843  -0.199492
Si   -41.368217    84.537396     3.631944   0.177594   0.285482  -0.208282
Si   -41.324905    81.194573     1.716779   0.220905   0.268392  -0.203334
Si   -38.223511    83.481167     1.695001   0.186768   0.337830  -0.225113
Si   -40.571284    83.437148     1.708854   0.190644   0.293812  -0.211259
Si   -38.179475    80.135810     3.619738   0.230804   0.318207  -0.220488
Si   -38.131777    76.786497     1.706072   0.278502   0.294627  -0.214041
Si   -35.035746    79.085149     1.680331   0.239002   0.376124  -0.239782
Si   -37.381765    79.035202     1.696405   0.244631   0.326177  -0.223708
Si   -34.986815    75.733166     3.606203   0.287932   0.349874  -0.234023
Si   -34.932649    72.376023     1.694501   0.342098   0.318465  -0.225612
Si   -31.843650    74.691046     1.662849   0.295565   0.416332  -0.257264
Si   -34.187758    74.632516     1.682369   0.303106   0.357802  -0.237744
Si   -31.787736    71.331286     3.590128   0.351480   0.382305  -0.250098
Si   -31.724206    67.963920     1.681356   0.415009   0.340673  -0.238757
Si   -28.644656    70.303712     1.640285   0.359028   0.463309  -0.279828
Si   -30.986610    70.231334     1.665392   0.368723   0.390932  -0.254721
Si   -28.579079    66.934261     3.569491   0.424605   0.419592  -0.270735
Si   -28.501512    63.551746     1.665665   0.502172   0.362810  -0.254448
Si   -25.435686    65.934187     1.608240   0.432467   0.528096  -0.311873
Si   -27.774967    65.836686     1.643102   0.444834   0.430595  -0.277011
Si   -25.356734    62.552140     3.540021   0.511418   0.471782  -0.300205
Si   -25.255389    59.142725     1.645723   0.612764   0.388100  -0.274390
Si   -22.212045    61.612968     1.555740   0.520576   0.641188  -0.364374
Si   -24.548357    61.461704     1.610067   0.535912   0.489924  -0.310046
Si   -22.114098    58.219908     3.488334   0.618523   0.573862  -0.351892
Si   -21.958852    54.749060     1.615692   0.773769   0.428747  -0.304421
Si   -18.949371    54.129242     3.363706   0.647718  -2.408227   1.443593
Si   -21.298447    57.158986     1.546715   0.650291   0.621518  -0.373398
Si   -18.802314    50.868188     1.405703   0.794776  -2.343548   1.405703
Si   -18.060983    48.283106     2.863449   1.536106  -1.602896   0.943336
Si   -15.441826    50.348317     3.048441   1.019732  -1.754840   1.128328
Si   -17.884708    50.061216     3.206202   0.928499  -2.041941   1.286089
Si   -15.351915    47.243290     0.842541   1.109643  -1.534135   0.842541
Si   -15.618785    44.175900     2.559378   0.842773  -1.275790   0.639265
Si   -12.314949    46.142332     2.748446   1.011077  -1.526514   0.828333
Si   -14.654729    46.188037     2.702888   1.022946  -1.480810   0.782775
Si   -12.475294    42.958859     0.690551   0.850732  -1.384254   0.690551
Si   -12.626712    39.768230     2.516604   0.699314  -1.249150   0.596491
Si    -9.350036    41.804357     2.626797   0.840459  -1.430178   0.706684
Si   -11.731738    41.868885     2.590765   0.810406  -1.365650   0.670652
Si    -9.483193    38.575650     0.621222   0.707301  -1.333152   0.621222
Si    -9.603818    35.334410     2.475235   0.586677  -1.248658   0.555122
Si    -6.354194    37.406117     2.548722   0.700769  -1.394107   0.628609
Si    -8.731114    37.471943     2.526592   0.675498  -1.328280   0.606479
Si    -6.472581    34.147665     0.564541   0.582382  -1.326825   0.564541
Si    -6.577491    30.882294     2.432730   0.477472  -1.266463   0.512617
Si    -3.351281    32.967336     2.482718   0.568150  -1.398576   0.562605
Si    -5.719028    33.036279     2.471189   0.552053  -1.329634   0.551076
Si    -3.454067    29.697916     0.511994   0.465364  -1.342263   0.511994
Si    -3.541912    26.425748     2.390762   0.377520  -1.288698   0.470649
Si    -0.333188    28.519657     2.423218   0.450712  -1.411945   0.503105
Si    -2.696975    28.585284     2.419563   0.438574  -1.346317   0.499450
Si    -0.417478    25.254074     0.463634   0.366422  -1.351794   0.463634
Si    -0.488656    21.984124     2.351750   0.295244  -1.296010   0.431637
Si     0.345180    24.147024     2.372508   0.345197  -1.350266   0.452395
Si   -53.594540   124.265773     3.707355  -0.290486   0.105057  -0.132872
Si   -54.349373   122.049444     3.704831  -0.261436   0.105884  -0.135395
Si   -53.512063   117.634366     3.692496  -0.208009   0.125117  -0.147730
Si   -50.406957   119.874566     3.683376  -0.238435   0.148161  -0.156850
Si   -53.553100   120.950375     1.779062  -0.249046   0.115392  -0.141051
Si   -51.162177   117.657177     3.682510  -0.209772   0.147928  -0.157717
Si   -50.323697   113.245092     3.672220  -0.155175   0.170154  -0.168007
Si   -47.215145   115.494103     3.660628  -0.182154   0.202010  -0.179598
Si   -50.364720   116.560671     1.756980  -0.196198   0.160000  -0.163133
Si   -47.971759   113.274239     3.661381  -0.154885   0.199302  -0.178846
Si   -47.134456   108.862613     3.653258  -0.101465   0.221987  -0.186968
Si   -44.023298   111.121224     3.639684  -0.125839   0.263442  -0.200542
Si   -47.174088   112.179634     1.736228  -0.141097   0.213274  -0.183885
Si   -44.781641   108.897749     3.641850  -0.100299   0.257123  -0.198376
Si   -43.946775   104.484244     3.635710  -0.049316   0.277929  -0.204516
Si   -40.834282   106.752518     3.620648  -0.072354   0.329048  -0.219579
Si   -43.984461   107.804278     1.717112  -0.087002   0.272229  -0.203001
Si   -41.594148   104.524757     3.623914  -0.048338   0.318442  -0.216312
Si   -40.761944   100.107696     3.619313  -0.000016   0.335692  -0.220913
Si   -37.649442   102.385304     3.603158  -0.023046   0.396144  -0.237068
Si   -40.797831   103.431770     1.699527  -0.035903   0.334033  -0.220587
Si   -38.410295   100.153024     3.607166  -0.000016   0.381020  -0.233060
Si   -37.580170    95.731588     3.603465   0.046226   0.393895  -0.236761
Si   -34.468826    98.018195     3.586451   0.022039   0.463347  -0.253775
Si   -37.614908    99.060134     1.682970   0.011488   0.396708  -0.237143
Si   -35.229964    95.781496     3.590840   0.044784   0.443803  -0.249386
Si   -34.400758    91.355774     3.587240   0.090107   0.452393  -0.252986
Si   -31.291463    93.651356     3.569411   0.063870   0.530819  -0.270816
Si   -34.435329    94.688657     1.666589   0.055536   0.459542  -0.253524
Si   -32.052125    91.410571     3.573825   0.087090   0.507190  -0.266401
Si   -31.222243    86.981631     3.569349   0.133089   0.512561  -0.270877
Si   -28.115524    89.286682     3.550561   0.104278   0.600456  -0.289665
Si   -31.257858    90.318139     1.649186   0.097475   0.523335  -0.270927
Si   -28.874942    87.042368     3.554627   0.128742   0.573298  -0.285600
Si   -28.042399    82.612524     3.547999   0.177403   0.577765  -0.292227
Si   -24.938237    84.928102     3.527961   0.146032   0.676188  -0.312266
Si   -28.080451    85.951189     1.629149   0.139350   0.590697  -0.290964
Si   -25.695666    82.681206     3.531197   0.172486   0.646447  -0.309029
Si   -24.857968    78.254748     3.520571   0.226302   0.654301  -0.319655
Si   -21.755453    80.582147     3.498946   0.193285   0.764543  -0.341280
Si   -24.900078    81.592799     1.604247   0.184191   0.666618  -0.315866
Si   -22.510146    78.334508     3.500589   0.222475   0.734060  -0.339638
Si   -21.663773    73.919353     3.482941   0.284965   0.753217  -0.357286
Si   -18.560538    72.932868     1.539592   0.252669  -2.450424   1.539592
Si   -21.712077    77.251367     1.571222   0.236662   0.759497  -0.348891
Si   -19.311488    70.688407     1.538195   0.285601  -2.477729   1.538195
Si   -18.450081    66.299164     1.508073   0.363125  -2.432661   1.508073
Si   -15.342269    68.644222     1.484617   0.335406  -2.304758   1.484617
Si   -18.508478    69.614319     3.445164   0.304728  -2.443239   1.525051
Si   -16.087036    66.410994     1.477262   0.374522  -2.320830   1.477262
Si   -15.196271    62.070535     1.424697   0.481404  -2.226978   1.424697
Si   -12.083332    64.398563     1.406811   0.458811  -2.116106   1.406811
Si   -15.274516    65.350260     3.378121   0.403159  -2.272987   1.458008
Si   -12.815177    62.188662     1.388023   0.510850  -2.108851   1.388023
Si   -11.871874    57.905437     1.298898   0.670269  -1.957765   1.298898
Si    -8.771738    60.176986     1.300961   0.634874  -1.903372   1.300961
Si   -11.987244    61.139894     3.280354   0.554899  -2.049042   1.360241
Si    -9.483307    57.991692     1.263936   0.707188  -1.871510   1.263936
Si    -8.517192    53.700389     1.136425   0.889420  -1.728502   1.136425
Si    -5.441722    55.920350     1.172712   0.829358  -1.725697   1.172712
Si    -8.646151    56.936052     3.148463   0.760461  -1.818572   1.228349
Si    -6.154691    53.733518     1.117428   0.900272  -1.695373   1.117428
Si    -5.278630    49.377239     0.977990   0.992451  -1.617341   0.977990
Si    -2.173070    51.588000     1.039321   0.962479  -1.623736   1.039321
Si    -5.336657    52.653635     3.000817   0.934423  -1.666678   1.080704
Si    -2.929353    49.383253     0.975648   0.990078  -1.611327   0.975648
Si    -2.173018    44.979450     0.845848   0.962530  -1.580818   0.845848
Si     0.988593    47.168221     0.910878   0.988610  -1.609203   0.910878
Si    -2.142022    48.283725     2.862699   0.993527  -1.602277   0.942586
Si     0.179730    44.952080     0.848138   0.963630  -1.608188   0.848138
Si     0.852101    40.508749     0.731411   0.852118  -1.617208   0.731411
Si     0.941867    43.828369     2.737904   0.941885  -1.623322   0.817791
Si   -54.308637   118.733041     1.777612  -0.220701   0.115214  -0.142501
Si   -54.268378   115.415819     3.692005  -0.180442   0.123726  -0.148222
Si   -54.228754   112.097393     1.767442  -0.140817   0.131033  -0.152672
Si   -51.120990   114.341669     1.757064  -0.168584   0.158154  -0.163049
Si   -53.471699   114.317291     1.767075  -0.167645   0.133775  -0.153038
Si   -51.080866   111.024386     3.673135  -0.128461   0.166604  -0.167091
Si   -51.041667   107.705079     1.750143  -0.089262   0.173031  -0.169970
Si   -47.931696   109.957744     1.737751  -0.114822   0.208540  -0.182362
Si   -50.283802   109.927523     1.748485  -0.115280   0.178319  -0.171628
Si   -47.892770   106.638712     3.655459  -0.075896   0.215242  -0.184767
Si   -47.854630   103.317038     1.733946  -0.037756   0.219301  -0.186167
Si   -44.743459   105.578589     1.719860  -0.062117   0.263696  -0.200253
Si   -47.095909   105.542908     1.731123  -0.062918   0.228015  -0.188990
Si   -44.706074   102.256404     3.638995  -0.024732   0.267245  -0.201231
Si   -44.669010    98.931180     1.718744   0.012332   0.267754  -0.201369
Si   -41.557856   101.201757     1.703219  -0.012046   0.321175  -0.216894
Si   -43.909754   101.161105     1.714927  -0.012295   0.280523  -0.205186
Si   -41.521748    97.875479     3.623447   0.024063   0.320630  -0.216780
Si   -41.485273    94.545921     1.704155   0.060538   0.316806  -0.215958
Si   -38.375351    96.825605     1.687308   0.034928   0.379334  -0.232805
Si   -40.726057    96.780306     1.699526   0.035871   0.334036  -0.220587
Si   -38.339807    93.494790     3.608215   0.070472   0.374253  -0.232012
Si   -38.303058    90.160517     1.689527   0.107221   0.365714  -0.230586
Si   -35.195457    92.449654     1.671282   0.079291   0.437695  -0.248831
Si   -37.544617    92.399625     1.684244   0.081779   0.387666  -0.235869
Si   -35.159456    89.114334     3.592392   0.115291   0.428108  -0.247834
Si   -35.121302    85.775341     1.673910   0.153445   0.414848  -0.246204
Si   -32.016895    88.074867     1.653952   0.122320   0.497219  -0.266161
Si   -34.364457    88.019389     1.668092   0.126408   0.441741  -0.252021
Si   -31.979205    84.735572     3.574705   0.160011   0.483658  -0.265521
Si   -31.938326    81.392268     1.655948   0.200890   0.466087  -0.264165
Si   -28.837640    83.704047     1.633672   0.166044   0.560711  -0.286441
Si   -31.183919    83.641498     1.649682   0.171414   0.498162  -0.270431
Si   -28.796874    80.362004     3.553331   0.206810   0.544401  -0.286896
Si   -28.751837    77.015469     1.633624   0.251847   0.523600  -0.286489
Si   -25.654741    79.342631     1.608076   0.213412   0.633605  -0.312038
Si   -28.000632    79.270115     1.627002   0.219169   0.561090  -0.293111
Si   -25.609378    76.000398     3.525484   0.258775   0.617106  -0.314742
Si   -25.558724    72.653263     1.603636   0.309429   0.595705  -0.316477
Si   -22.463648    75.000243     1.573506   0.268973   0.725529  -0.346608
Si   -24.811194    74.913162     1.596915   0.273076   0.638448  -0.323198
Si   -22.411859    71.663469     3.486499   0.320762   0.714489  -0.353727
Si   -22.353991    68.322720     1.559866   0.378630   0.699473  -0.360247
Si   -19.256190    67.367588     3.444017   0.340899  -2.472815   1.523904
Si   -21.609971    70.585549     1.554027   0.338767   0.745146  -0.366086
Si   -19.194488    64.049397     1.507681   0.402601  -2.465272   1.507681
Si   -19.125430    60.735051     3.409489   0.471660  -2.453885   1.489376
Si   -16.015239    63.120442     3.369152   0.446319  -2.285649   1.449039
Si   -18.384688    62.989260     3.408363   0.428519  -2.416831   1.488250
Si   -15.931960    59.847843     1.413083   0.529598  -2.232515   1.413083
Si   -15.829965    56.607195     3.283836   0.631593  -2.147429   1.363723
Si   -12.710146    58.944502     3.254824   0.615881  -2.027278   1.334711
Si   -15.103550    58.814191     3.301195   0.574125  -2.157589   1.381082
Si   -12.580036    55.732118     1.261252   0.745991  -1.913929   1.261252
Si   -12.419127    52.549145     3.074263   0.906899  -1.771168   1.154150
Si    -9.350141    54.762967     3.098604   0.840354  -1.774502   1.178491
Si   -11.731851    54.698378     3.134641   0.810292  -1.839091   1.214528
Si    -9.227994    51.531646     1.069808   0.962500  -1.680089   1.069808
Si    -9.173844    48.283664     2.862712   1.016650  -1.602338   0.942599
Si    -6.073648    50.466620     2.935322   0.981315  -1.636537   1.015208
Si    -8.418629    50.455131     2.944600   0.987983  -1.648026   1.024487
Si    -6.060612    47.191958     0.906072   0.994351  -1.585466   0.906072
Si    -6.121852    43.921581     2.720629   0.933111  -1.530109   0.800515
Si    -2.940098    46.085022     2.796836   0.979334  -1.583824   0.876723
Si    -5.290836    46.097095     2.792263   0.980245  -1.571751   0.872150
Si    -3.009536    42.792665     0.782217   0.909896  -1.550448   0.782217
Si    -3.116270    39.510532     2.617311   0.803162  -1.506848   0.697198
Si     0.100753    41.633685     2.679080   0.884653  -1.600850   0.758967
Si    -2.255962    41.683716     2.675173   0.879587  -1.550819   0.755060
Si    -0.007429    38.334876     0.678878   0.776471  -1.573925   0.678878
Si    -0.123986    35.053891     2.529756   0.659914  -1.529178   0.609643
Si     0.740463    37.213371     2.574984   0.740480  -1.586853   0.654871
Si   -53.748738   137.532936     3.756962  -0.444684   0.069286  -0.083264
Si   -54.505457   135.317360     3.749071  -0.417520   0.070866  -0.091156
Si   -53.676205   130.897016     3.728678  -0.372151   0.084833  -0.111548
Si   -50.581906   133.123791     3.726246  -0.413383   0.094452  -0.113980
Si   -53.714361   134.214112     1.821847  -0.410307   0.076195  -0.098266
Si   -51.334199   130.910257     3.719980  -0.381793   0.098074  -0.120246
Si   -50.494473   126.499133     3.700906  -0.325950   0.121261  -0.139320
Si   -47.396293   128.732710     3.694203  -0.363302   0.137683  -0.146023
Si   -50.538718   129.811062     1.792412  -0.370196   0.107458  -0.127701
Si   -48.147215   126.519916     3.690174  -0.330342   0.142044  -0.150052
Si   -47.302440   122.116356     3.673618  -0.269449   0.172796  -0.166608
Si   -44.198538   124.359956     3.662938  -0.301079   0.199240  -0.177289
Si   -47.348717   125.424954     1.762708  -0.315726   0.155660  -0.157405
Si   -44.950826   122.145690     3.661408  -0.269484   0.202129  -0.178818
Si   -44.106237   117.746074     3.648104  -0.208778   0.236825  -0.192122
Si   -40.996855   120.001581     3.634269  -0.234928   0.275177  -0.205957
Si   -44.151101   121.054245     1.734444  -0.253642   0.219263  -0.185669
Si   -41.752013   117.783688     3.635076  -0.206202   0.274439  -0.205150
Si   -40.911118   113.383908     3.625126  -0.149191   0.308970  -0.215101
Si   -37.797821   115.651344     3.609209  -0.171425   0.359251  -0.231017
Si   -40.952610   116.694468     1.708859  -0.190682   0.293797  -0.211255
Si   -38.556096   113.428542     3.611862  -0.145817   0.353605  -0.228364
Si   -37.720347   109.025435     3.604787  -0.093951   0.384808  -0.235439
Si   -34.604972   111.303466     3.587825  -0.114107   0.445684  -0.252401
Si   -37.757949   112.340236     1.686437  -0.131553   0.373876  -0.233676
Si   -35.365872   109.075512     3.591672  -0.091125   0.434886  -0.248554
Si   -34.535178   104.667488     3.586591  -0.044313   0.461173  -0.253635
Si   -31.419232   106.954285     3.569410  -0.063900   0.530814  -0.270816
Si   -34.569320   107.987197     1.666909  -0.078455   0.455149  -0.253204
Si   -32.182001   104.721686     3.573777  -0.042785   0.515371  -0.266449
Si   -31.355347   100.308689     3.569582  -0.000014   0.536685  -0.270644
Si   -28.239865   102.602543     3.552753  -0.020063   0.613384  -0.287473
Si   -31.386958   103.632964     1.649420  -0.031625   0.535226  -0.270693
Si   -29.003698   100.366233     3.557011  -0.000014   0.594229  -0.283215
Si   -28.179514    95.949500     3.552457   0.040288   0.611808  -0.287769
Si   -25.065095    98.249063     3.536345   0.019175   0.694215  -0.303882
Si   -28.209803    99.277204     1.632716   0.009999   0.613778  -0.287397
Si   -25.829183    96.010243     3.539903   0.038970   0.672551  -0.300324
Si   -25.005433    91.592188     3.533607   0.078837   0.688806  -0.306620
Si   -21.892298    93.896410     3.518469   0.056440   0.775873  -0.321757
Si   -25.035854    94.921458     1.615262   0.048416   0.692344  -0.304851
Si   -22.655781    91.656566     3.520722   0.076840   0.753185  -0.319504
Si   -21.829834    87.240867     3.511058   0.118904   0.771797  -0.329168
Si   -18.717862    86.222954     1.577089   0.095345  -2.463272   1.577089
Si   -21.862192    90.569004     1.595259   0.086546   0.774201  -0.324854
Si   -19.479718    83.984007     1.577314   0.117372  -2.485063   1.577314
Si   -18.647956    79.575852     1.562213   0.165250  -2.458906   1.562213
Si   -15.536825    81.885529     1.550231   0.140850  -2.366385   1.550231
Si   -18.684702    82.899053     3.490682   0.128505  -2.461439   1.570569
Si   -16.295621    79.650073     1.547435   0.165937  -2.384686   1.547435
Si   -15.452669    75.256264     1.524097   0.225006  -2.344184   1.524097
Si   -12.342392    77.564252     1.515260   0.199752  -2.253351   1.515260
Si   -15.497501    78.569399     3.458710   0.180174  -2.356782   1.538597
Si   -13.095807    75.335687     1.507980   0.230219  -2.264761   1.507980
Si   -12.233518    70.963538     1.472617   0.308626  -2.202598   1.472617
Si    -9.125877    73.263425     1.469472   0.280735  -2.119867   1.469472
Si   -12.292244    74.260785     3.416340   0.249899  -2.231085   1.496227
Si    -9.870140    71.045284     1.455602   0.320355  -2.120852   1.455602
Si    -8.978112    66.697967     1.403661   0.428500  -2.033858   1.403661
Si    -5.878761    68.982223     1.410591   0.392319  -1.966757   1.410591
Si    -9.058448    69.976290     3.360237   0.348164  -2.081268   1.440124
Si    -6.609166    66.775367     1.387502   0.445797  -1.956458   1.387502
Si    -5.682229    62.442989     1.315302   0.588851  -1.854524   1.315302
Si    -2.598918    64.712774     1.337981   0.536630  -1.801895   1.337981
Si    -5.788117    65.709479     3.288010   0.482963  -1.913768   1.367897
Si    -3.314094    62.510481     1.303337   0.605338  -1.787032   1.303337
Si    -2.368130    58.167873     1.210891   0.767419  -1.695330   1.210891
Si     0.701676    60.447879     1.253349   0.701693  -1.632479   1.253349
Si    -2.487154    61.442728     3.200220   0.648395  -1.746207   1.280107
Si    -0.007548    58.232606     1.206272   0.776352  -1.630596   1.206272
Si     0.915649    53.848336     1.097108   0.915666  -1.580555   1.097108
Si     0.816161    57.159786     3.100557   0.816178  -1.594838   1.180444
Si   -54.469391   131.998884     1.815407  -0.381454   0.078123  -0.104706
Si   -54.430544   128.681788     3.723644  -0.342607   0.086761  -0.116582
Si   -54.390220   125.365508     1.793324  -0.302283   0.096214  -0.126790
Si   -51.291102   127.597145     1.787749  -0.338697   0.110696  -0.132365
Si   -53.635858   127.581113     1.797044  -0.331804   0.094664  -0.123069
Si   -51.247565   124.284383     3.697681  -0.295160   0.123667  -0.142546
Si   -51.204433   120.971259     1.769174  -0.252028   0.136277  -0.150939
Si   -48.101078   123.210734     1.760204  -0.284204   0.158596  -0.159909
Si   -50.450321   123.187200     1.771137  -0.281799   0.135062  -0.148976
Si   -48.056345   119.900405     3.672397  -0.239471   0.174000  -0.167829
Si   -48.013246   116.588371     1.746048  -0.196373   0.187700  -0.174065
Si   -44.905362   118.837699     1.734150  -0.224020   0.219872  -0.185963
Si   -47.257887   118.806234     1.746196  -0.224896   0.188408  -0.173917
Si   -44.862198   115.527194     3.648800  -0.180856   0.235101  -0.191426
Si   -44.821080   112.213925     1.724624  -0.139737   0.247566  -0.195489
Si   -41.709581   114.473945     1.710503  -0.163770   0.290429  -0.209611
Si   -44.063750   114.435126     1.723126  -0.166291   0.251610  -0.196988
Si   -41.669472   111.160872     3.627417  -0.123661   0.303090  -0.212809
Si   -41.631172   107.844469     1.705127  -0.085362   0.312421  -0.214986
Si   -38.517534   110.114909     1.689529  -0.107255   0.365705  -0.230584
Si   -40.871858   110.069912     1.702312  -0.109931   0.320707  -0.217801
Si   -38.480784   106.797717     3.608216  -0.070505   0.374247  -0.232011
Si   -38.445239   103.477069     1.687308  -0.034960   0.379331  -0.232805
Si   -35.330938   105.757033     1.670872  -0.056191   0.442140  -0.249241
Si   -37.684384   105.707089     1.683589  -0.057988   0.392196  -0.236524
Si   -35.297068   102.435164     3.590655  -0.022320   0.446004  -0.249571
Si   -35.263622    99.109981     1.670497   0.011126   0.446555  -0.249616
Si   -32.149862   101.398474     1.653676  -0.010646   0.517892  -0.266437
Si   -34.501894   101.344468     1.666305  -0.011030   0.463886  -0.253808
Si   -32.117942    98.072239     3.573786   0.021273   0.517391  -0.266440
Si   -32.085584    94.742969     1.653663   0.053632   0.513854  -0.266450
Si   -28.973205    97.039241     1.636719   0.030480   0.592971  -0.283394
Si   -31.323737    96.981499     1.649420   0.031596   0.535229  -0.270693
Si   -28.942034    93.709693     3.556318   0.061650   0.589156  -0.283908
Si   -28.909508    90.377472     1.635427   0.094176   0.582668  -0.284687
Si   -25.798947    92.681148     1.618468   0.069206   0.669189  -0.301645
Si   -28.148315    92.619373     1.631561   0.071486   0.607414  -0.288552
Si   -25.767078    89.350086     3.536610   0.101074   0.663860  -0.303616
Si   -25.732881    86.016870     1.613979   0.135271   0.656378  -0.306134
Si   -22.624104    88.327837     1.597054   0.108517   0.750189  -0.323059
Si   -24.973126    88.261133     1.610986   0.111143   0.683485  -0.309127
Si   -22.589734    84.998018     3.512560   0.142887   0.746103  -0.327667
Si   -22.551969    81.666977     1.586872   0.180652   0.740796  -0.333241
Si   -19.444353    80.659143     3.490250   0.152736  -2.484193   1.570137
Si   -21.794489    83.911939     1.585448   0.154250   0.768603  -0.334665
Si   -19.404993    77.334713     1.561259   0.192097  -2.482890   1.561259
Si   -19.360913    74.010991     3.470742   0.236176  -2.480879   1.550629
Si   -16.253259    76.333875     3.454825   0.208299  -2.375150   1.534712
Si   -18.606816    76.253632     3.472040   0.206390  -2.455393   1.551927
Si   -16.204987    73.020858     1.519122   0.256571  -2.362434   1.519122
Si   -16.149885    69.712448     3.420322   0.311673  -2.345111   1.500209
Si   -13.041236    72.033972     3.407090   0.284790  -2.240742   1.486977
Si   -15.401273    71.947249     3.426426   0.276402  -2.327464   1.506312
Si   -12.977500    68.739706     1.461030   0.348526  -2.209275   1.461030
Si   -12.902917    65.456218     3.348904   0.423109  -2.167029   1.428791
Si    -9.795907    67.762360     3.342828   0.394588  -2.078043   1.422715
Si   -12.164528    67.674898     3.363475   0.377615  -2.165505   1.443362
Si    -9.707814    64.490527     1.381699   0.482681  -2.024142   1.381699
Si    -9.603933    61.232961     3.250133   0.586561  -1.955975   1.330020
Si    -6.509358    63.507382     3.259245   0.545606  -1.898709   1.339132
Si    -8.882928    63.430809     3.278290   0.523683  -1.975282   1.358177
Si    -6.394951    60.246835     1.279386   0.660012  -1.833523   1.279386
Si    -6.271554    56.991078     3.126095   0.783409  -1.763546   1.205981
Si    -3.195959    59.240049     3.158229   0.723473  -1.731731   1.238116
Si    -5.563669    59.181289     3.170935   0.707412  -1.790492   1.250822
Si    -3.078251    55.963987     1.160873   0.841180  -1.682059   1.160873
Si    -2.981044    52.678388     2.992421   0.938387  -1.641925   1.072307
Si     0.100662    54.933796     3.046306   0.884562  -1.603673   1.126193
Si    -2.256054    54.883736     3.050215   0.879495  -1.653733   1.130102
Si     0.179680    51.615402     1.037029   0.963580  -1.596333   1.037029
Si     0.208980    48.283742     2.862698   0.992880  -1.602260   0.942585
Si     0.978880    50.514099     2.925903   0.978897  -1.589059   1.005790
Si   -53.812368   150.826036     3.829212  -0.508314   0.059453  -0.011014
Si   -54.588475   148.609132     3.816680  -0.500538   0.059704  -0.023546
Si   -53.798657   144.176645     3.791387  -0.494603   0.061528  -0.048840
Si   -50.703816   146.395151     3.800969  -0.535293   0.062879  -0.039258
Si   -53.810630   147.501004     1.890003  -0.506576   0.060154  -0.030110
Si   -51.469284   144.179624     3.788003  -0.516879   0.064508  -0.052223
Si   -50.657824   139.754719     3.760073  -0.489302   0.073914  -0.080153
Si   -47.570350   141.974656     3.765396  -0.537359   0.076695  -0.074831
Si   -50.685802   143.073829     1.859727  -0.517280   0.067291  -0.060386
Si   -48.324793   139.762134     3.753189  -0.507919   0.081328  -0.087038
Si   -47.490980   135.349454     3.724504  -0.457989   0.102960  -0.115722
Si   -44.404366   137.573539     3.723730  -0.506907   0.109889  -0.116496
Si   -47.534072   138.660575     1.823567  -0.501081   0.088348  -0.096546
Si   -45.150913   135.364640     3.713874  -0.469571   0.118146  -0.126352
Si   -44.300441   130.966426     3.687091  -0.402982   0.154243  -0.153135
Si   -41.207543   133.200343     3.679336  -0.445615   0.171004  -0.160891
Si   -44.353166   134.269203     1.783578  -0.455707   0.131286  -0.136535
Si   -41.952145   130.992870     3.673241  -0.406334   0.180688  -0.166985
Si   -41.095330   126.605920     3.650904  -0.333402   0.228048  -0.189322
Si   -37.992919   128.855382     3.636856  -0.366523   0.260355  -0.203370
Si   -41.149925   129.903924     1.743214  -0.387997   0.200319  -0.176899
Si   -38.740756   126.644926     3.635050  -0.330478   0.267054  -0.205177
Si   -37.886959   122.261725     3.618567  -0.260563   0.318165  -0.221659
Si   -34.776610   124.528444     3.600184  -0.285746   0.367728  -0.240042
Si   -37.937538   125.560652     1.706139  -0.311142   0.291359  -0.213974
Si   -35.529576   122.311459     3.602126  -0.254829   0.367899  -0.238100
Si   -34.683505   117.924738     3.591407  -0.192640   0.415489  -0.248820
Si   -31.568568   120.206030     3.570990  -0.213235   0.479625  -0.269236
Si   -34.727831   121.229029     1.674766  -0.236967   0.394047  -0.245347
Si   -32.326115   117.981654     3.575506  -0.186899   0.472405  -0.264720
Si   -31.488456   113.587487     3.569349  -0.133123   0.512550  -0.270877
Si   -28.371503   115.878844     3.548822  -0.151702   0.586751  -0.291405
Si   -31.526783   116.898818     1.649682  -0.171450   0.498147  -0.270431
Si   -29.132459   113.648225     3.554626  -0.128774   0.573288  -0.285600
Si   -28.302036   109.246010     3.551333  -0.082235   0.605383  -0.288893
Si   -25.184421   111.543244     3.532009  -0.100151   0.685462  -0.308217
Si   -28.335513   112.563881     1.630026  -0.115712   0.597521  -0.290088
Si   -25.947794   109.308260     3.537991  -0.079641   0.667634  -0.302235
Si   -25.122869   104.899462     3.535789  -0.038599   0.693146  -0.304438
Si   -22.005205   107.199343     3.518467  -0.056467   0.775872  -0.321759
Si   -25.152819   108.222222     1.614167  -0.068550   0.690173  -0.305946
Si   -22.770185   104.961949     3.523744  -0.037564   0.755634  -0.316482
Si   -21.948751   100.549185     3.520953  -0.000013   0.777181  -0.319273
Si   -18.831323    99.523507     1.586000  -0.018116  -2.465653   1.586000
Si   -21.976602   103.874593     1.600218  -0.027864   0.776856  -0.319896
Si   -19.597102    97.285641     1.589862  -0.000012  -2.486363   1.589862
Si   -18.776771    92.872330     1.584898   0.036436  -2.465363   1.584898
Si   -15.659717    95.170457     1.572910   0.017958  -2.384391   1.572910
Si   -18.804182    96.197701     3.506390   0.009025  -2.465725   1.586276
Si   -16.425361    92.934145     1.574722   0.036197  -2.403548   1.574722
Si   -15.603160    88.524422     1.566007   0.074515  -2.378960   1.566007
Si   -12.486607    90.818520     1.557338   0.055536  -2.302017   1.557338
Si   -15.632186    91.846609     3.490626   0.045489  -2.382506   1.570513
Si   -13.250952    88.585970     1.556433   0.075075  -2.317411   1.556433
Si   -12.423074    84.184550     1.542289   0.119070  -2.284520   1.542289
Si    -9.307415    86.472202     1.537715   0.099197  -2.214023   1.537715
Si   -12.456372    87.499995     3.471280   0.085771  -2.294808   1.551167
Si   -10.068909    84.245811     1.533294   0.121586  -2.223259   1.533294
Si    -9.230453    79.857533     1.511850   0.176159  -2.177226   1.511850
Si    -6.116831    82.135912     1.512695   0.154249  -2.116002   1.512695
Si    -9.271533    83.162558     3.446676   0.135079  -2.197934   1.526563
Si    -6.873363    79.918071     1.503747   0.181600  -2.116687   1.503747
Si    -6.018368    75.546941     1.472975   0.252712  -2.053507   1.472975
Si    -2.909156    77.813557     1.481325   0.226392  -2.004046   1.481325
Si    -6.071629    78.838500     3.415320   0.199451  -2.087681   1.495207
Si    -3.658078    75.606162     1.466606   0.261354  -1.994286   1.466606
Si    -2.780553    71.254298     1.424565   0.354996  -1.911838   1.424565
Si     0.321178    73.509643     1.443350   0.321195  -1.873649   1.443350
Si    -2.850502    74.530999     3.376175   0.285047  -1.960871   1.456062
Si    -0.417641    71.313507     1.421460   0.366259  -1.852629   1.421460
Si     0.485959    66.982332     1.366712   0.485976  -1.749493   1.366712
Si     0.396877    70.244222     3.329094   0.396895  -1.813337   1.408981
Si   -54.580187   145.283923     1.878271  -0.492250   0.060229  -0.041842
Si   -54.562618   141.959900     3.780755  -0.474681   0.061939  -0.059471
Si   -54.537130   138.637645     1.844100  -0.449194   0.065417  -0.076013
Si   -51.445397   140.858911     1.848255  -0.492992   0.069528  -0.071858
Si   -53.777476   140.853797     1.853419  -0.473422   0.064414  -0.066694
Si   -51.413357   137.540547     3.750306  -0.460951   0.076898  -0.089921
Si   -51.375550   134.224487     1.814016  -0.423145   0.086571  -0.106097
Si   -48.285135   136.448843     1.813568  -0.468261   0.093772  -0.106545
Si   -50.622345   136.438127     1.822009  -0.453822   0.083055  -0.098104
Si   -48.240731   133.138000     3.716683  -0.423858   0.108661  -0.123543
Si   -48.194148   129.828696     1.782110  -0.377275   0.125091  -0.138003
Si   -45.099884   132.059962     1.776338  -0.418542   0.139201  -0.143776
Si   -47.444248   132.040522     1.787918  -0.411257   0.119762  -0.132196
Si   -45.048605   128.756023     3.682124  -0.367263   0.160996  -0.158102
Si   -44.998659   125.451581     1.750457  -0.317316   0.182287  -0.169656
Si   -41.897333   127.694185     1.739561  -0.351522   0.207736  -0.180552
Si   -44.248487   127.663738     1.753528  -0.351028   0.177289  -0.166585
Si   -41.845619   124.393526     3.649156  -0.299808   0.232810  -0.191071
Si   -41.797235   121.090157     1.721008  -0.251425   0.255174  -0.199105
Si   -38.688826   123.346742     1.706079  -0.278547   0.294604  -0.214034
Si   -41.044319   123.305319     1.721301  -0.282391   0.253181  -0.198812
Si   -38.641124   120.044592     3.619743  -0.230845   0.318188  -0.220483
Si   -38.597086   116.738486     1.695004  -0.186807   0.337814  -0.225109
Si   -35.483645   119.008774     1.677581  -0.208898   0.390948  -0.242532
Si   -37.840604   118.958573     1.692961  -0.214208   0.340746  -0.227152
Si   -35.441543   115.701645     3.594755  -0.166795   0.409552  -0.245471
Si   -35.402518   112.390457     1.672742  -0.127771   0.424097  -0.247371
Si   -32.286380   114.672102     1.654318  -0.147165   0.488587  -0.265795
Si   -34.642801   114.616081     1.669078  -0.151937   0.432565  -0.251035
Si   -32.249586   111.358697     3.573953  -0.110370   0.500915  -0.266273
Si   -32.215020   108.041810     1.653683  -0.075805   0.509761  -0.266430
Si   -29.097891   110.331865     1.635426  -0.094206   0.582661  -0.284687
Si   -31.452839   110.272531     1.649186  -0.097506   0.523327  -0.270927
Si   -29.065363   107.012622     3.556317  -0.061679   0.589151  -0.283909
Si   -29.034192   103.690706     1.636719  -0.030507   0.592968  -0.283395
Si   -25.917090   105.986530     1.619425  -0.048937   0.671637  -0.300688
Si   -28.270382   105.925507     1.632125  -0.050580   0.610614  -0.287988
Si   -25.887554   102.662915     3.540391  -0.019401   0.673756  -0.299835
Si   -25.858485    99.337483     1.620401   0.009668   0.674057  -0.299712
Si   -22.741953   101.636968     1.604581  -0.009332   0.756387  -0.315532
Si   -25.093864   101.575061     1.616371  -0.009594   0.694479  -0.303743
Si   -22.713968    98.311085     3.524505   0.018653   0.756237  -0.315722
Si   -22.685490    94.984296     1.603064   0.047131   0.755181  -0.317049
Si   -19.569755    93.959984     3.509200   0.027335  -2.486286   1.589087
Si   -21.920900    97.223127     1.600219   0.027838   0.776857  -0.319894
Si   -19.541611    90.634483     1.586752   0.055479  -2.486054   1.586752
Si   -19.511868    87.309146     3.502952   0.085221  -2.485658   1.582839
Si   -16.396960    89.610841     3.491221   0.064598  -2.401118   1.571108
Si   -18.748273    89.547404     3.501960   0.064934  -2.464555   1.581847
Si   -16.366497    86.288943     1.565439   0.095061  -2.397282   1.565439
Si   -16.333040    82.968595     3.477715   0.128518  -2.391897   1.557602
Si   -13.219013    85.268491     3.468888   0.107013  -2.309157   1.548775
Si   -15.571701    85.203995     3.479410   0.105974  -2.373653   1.559297
Si   -13.183336    81.953949     1.538369   0.142690  -2.297966   1.538369
Si   -13.142706    78.642766     3.445024   0.183321  -2.283414   1.524911
Si   -10.030156    80.937852     3.440303   0.160338  -2.205484   1.520190
Si   -12.385520    80.872467     3.450555   0.156624  -2.270870   1.530442
Si    -9.985289    77.634553     1.503321   0.205206  -2.183050   1.503321
Si    -9.932587    74.336635     3.402187   0.257908  -2.155235   1.482074
Si    -6.823592    76.622936     3.403674   0.231371  -2.086090   1.483561
Si    -9.182526    76.557572     3.413169   0.224086  -2.151453   1.493056
Si    -6.764465    73.333754     1.458190   0.290498  -2.049538   1.458190
Si    -6.693718    70.051018     3.346728   0.361246  -2.006541   1.426615
Si    -3.592661    72.325727     3.357694   0.326770  -1.948987   1.437581
Si    -5.954849    72.261437     3.365255   0.316231  -2.013277   1.445142
Si    -3.514426    69.050629     1.401611   0.405005  -1.898352   1.401611
Si    -3.421580    65.779589     3.277474   0.497852  -1.843658   1.357361
Si    -0.333342    68.047886     3.302117   0.450558  -1.792517   1.382004
Si    -2.697122    67.982245     3.305773   0.438427  -1.858158   1.385660
Si    -0.234955    64.783066     1.333774   0.548945  -1.731603   1.333774
Si    -0.124121    61.513602     3.195607   0.659779  -1.675334   1.275494
Si     0.588611    63.719236     3.235344   0.588628  -1.686855   1.315231
Si   -53.726259   164.115223     0.058659  -0.422205   0.045706   0.058659
Si   -54.527110   161.904669     0.046447  -0.439173   0.052307   0.046447
Si   -53.785425   157.474161     0.026089  -0.481371   0.056111   0.026089
Si   -50.657771   159.680848     0.045350  -0.489248   0.045642   0.045350
Si   -53.758984   160.795722     1.963232  -0.454930   0.051938   0.043119
Si   -51.454337   157.469945     0.030673  -0.501932   0.051895   0.030673
Si   -50.703796   153.040401     0.004464  -0.535273   0.056662   0.004464
Si   -47.588966   155.249963     0.024342  -0.555975   0.049068   0.024342
Si   -50.685764   156.361728     1.945702  -0.517242   0.052256   0.025589
Si   -48.377264   153.038405     0.007003  -0.560391   0.054666   0.007003
Si   -47.608811   148.611174     3.814317  -0.575820   0.061746  -0.025909
Si   -44.511291   150.823497     3.832817  -0.613832   0.056914  -0.007409
Si   -47.606254   151.931179     1.919676  -0.573263   0.056018  -0.000437
Si   -45.285358   148.612073     3.813224  -0.604016   0.062645  -0.027003
Si   -44.486667   144.192159     3.773912  -0.589208   0.077043  -0.066314
Si   -41.406665   146.406406     3.787240  -0.644738   0.074134  -0.052987
Si   -44.508113   147.506963     1.882751  -0.610654   0.066113  -0.037363
Si   -42.161020   144.198182     3.767210  -0.615210   0.083066  -0.073017
Si   -41.323426   139.795445     3.724418  -0.561498   0.114640  -0.115809
Si   -38.250184   142.014308     3.727489  -0.623788   0.116347  -0.112737
Si   -41.372590   143.098368     1.833788  -0.610662   0.091829  -0.086325
Si   -38.987284   139.812697     3.710774  -0.577005   0.131892  -0.129452
Si   -38.118465   135.434763     3.670567  -0.492069   0.188269  -0.169659
Si   -35.034398   137.670427     3.660174  -0.543533   0.206777  -0.180052
Si   -38.185884   138.722953     1.775632  -0.559488   0.150725  -0.144482
Si   -35.767990   135.471317     3.650867  -0.493243   0.224823  -0.189359
Si   -34.891371   131.110507     3.619748  -0.400506   0.298325  -0.220478
Si   -31.790612   133.375423     3.597846  -0.435279   0.346085  -0.242380
Si   -34.959261   134.392743     1.716401  -0.468397   0.254826  -0.203712
Si   -32.532154   131.167607     3.597129  -0.392938   0.355424  -0.243098
Si   -31.666056   126.805004     3.577922  -0.310723   0.427132  -0.262304
Si   -28.555978   129.096759     3.550004  -0.336177   0.501731  -0.290222
Si   -31.724112   130.094500     1.665401  -0.368779   0.390895  -0.254712
Si   -29.305867   126.874992     3.555727  -0.302183   0.497120  -0.284499
Si   -28.453897   122.498102     3.546988  -0.234096   0.554542  -0.293238
Si   -25.341231   124.804894     3.518142  -0.256962   0.644178  -0.322084
Si   -28.501933   125.800723     1.627353  -0.282132   0.531429  -0.292760
Si   -26.096195   122.572106     3.527224  -0.228042   0.628546  -0.313002
Si   -25.255371   118.179325     3.525594  -0.171101   0.670076  -0.314632
Si   -22.142061   120.490944     3.498940  -0.193323   0.764539  -0.341286
Si   -25.296092   121.493722     1.601716  -0.211822   0.658740  -0.318397
Si   -22.900301   118.251955     3.508938  -0.167680   0.742706  -0.331288
Si   -22.067673   113.846732     3.511054  -0.118935   0.771794  -0.329172
Si   -18.953553   112.831412     1.567985  -0.140347  -2.460681   1.567985
Si   -22.103021   117.169270     1.585442  -0.154283   0.768599  -0.334671
Si   -19.714492   110.589875     1.577308  -0.117402  -2.485063   1.577308
Si   -18.888051   106.176445     1.580449  -0.074844  -2.464182   1.580449
Si   -15.772861   108.482160     1.561780  -0.095186  -2.375622   1.561780
Si   -18.919287   109.503634     3.495222  -0.106081  -2.462726   1.575109
Si   -16.536063   106.240629     1.569447  -0.074505  -2.399997   1.569447
Si   -15.713891   101.823002     1.571540  -0.036216  -2.383314   1.571540
Si   -12.597706   104.121459     1.557333  -0.055562  -2.302011   1.557333
Si   -15.742318   105.151721     3.487857  -0.064643  -2.380327   1.567744
Si   -13.362449   101.882090     1.562718  -0.036423  -2.324225   1.562718
Si   -12.542156    97.464292     1.562174  -0.000012  -2.307712   1.562174
Si    -9.425218    99.753146     1.552511  -0.018606  -2.236013   1.552511
Si   -12.569446   100.791446     3.481084  -0.027303  -2.306291   1.560971
Si   -10.190507    97.518097     1.555162  -0.000012  -2.253906   1.555162
Si    -9.369134    93.104404     1.550707   0.037478  -2.233289   1.550707
Si    -6.251755    95.381300     1.545789   0.019325  -2.173548   1.545789
Si    -9.397347    96.426730     3.473075   0.009265  -2.236696   1.552961
Si    -7.016410    93.152815     1.545308   0.038553  -2.184877   1.545308
Si    -6.190512    88.747678     1.535862   0.080568  -2.155704   1.535862
Si    -3.073193    91.010139     1.536170   0.062356  -2.110398   1.536170
Si    -6.222051    92.061797     3.462469   0.049029  -2.167318   1.542356
Si    -3.835853    88.790515     1.532131   0.083579  -2.112866   1.532131
Si    -3.001553    84.398355     1.516758   0.133996  -2.070715   1.516758
Si     0.114816    86.643635     1.523174   0.114833  -2.042591   1.523174
Si    -3.039172    87.700888     3.448355   0.096377  -2.093915   1.528242
Si    -0.644245    84.435268     1.515087   0.139655  -2.033802   1.515087
Si     0.202799    80.060615     1.493044   0.202816  -1.974144   1.493044
Si     0.155954    83.348027     3.430327   0.155971  -2.012465   1.510214
Si   -54.554875   158.583055     1.950462  -0.466938   0.056427   0.030349
Si   -54.575276   155.259566     0.013044  -0.487339   0.058671   0.013044
Si   -54.586790   151.934662     1.915034  -0.498853   0.059500  -0.005079
Si   -51.475025   154.148528     1.930731  -0.522619   0.056211   0.010618
Si   -53.803713   154.150730     1.928008  -0.499659   0.058413   0.007895
Si   -51.484878   150.825563     3.829900  -0.532472   0.058980  -0.010326
Si   -51.482895   147.502178     1.888610  -0.530490   0.061328  -0.031503
Si   -48.384491   149.717844     1.902710  -0.567617   0.059838  -0.017403
Si   -50.710039   149.717775     1.902717  -0.541517   0.059770  -0.017396
Si   -48.377286   146.397284     3.798416  -0.560412   0.065012  -0.041810
Si   -48.356572   143.078359     1.854831  -0.539698   0.071820  -0.065282
Si   -45.270615   145.295405     1.864847  -0.589273   0.071711  -0.055266
Si   -47.596288   145.291796     1.869080  -0.563297   0.068102  -0.051033
Si   -45.240449   141.981579     3.758430  -0.559107   0.083618  -0.081796
Si   -45.199035   138.671454     1.814456  -0.517693   0.099226  -0.105658
Si   -42.118492   140.891684     1.817340  -0.572682   0.102301  -0.102773
Si   -44.450443   140.880898     1.827141  -0.552984   0.091515  -0.092972
Si   -42.065868   137.589736     3.711768  -0.520057   0.126087  -0.128458
Si   -42.009072   134.290805     1.770327  -0.463261   0.152888  -0.149786
Si   -38.922809   136.521170     1.763932  -0.512531   0.166098  -0.156181
Si   -41.266521   136.496800     1.779442  -0.504593   0.141728  -0.140671
Si   -38.858380   133.230944     3.663071  -0.448101   0.201606  -0.177155
Si   -38.797303   129.939401     1.726938  -0.387024   0.235796  -0.193175
Si   -35.698760   132.188926     1.711666  -0.424013   0.268165  -0.208447
Si   -38.053392   132.146351     1.731168  -0.426996   0.225591  -0.188945
Si   -35.636272   128.901789     3.618186  -0.361525   0.306762  -0.222040
Si   -35.580157   125.609262     1.688561  -0.305409   0.339968  -0.231552
Si   -32.471345   127.880853     1.667248  -0.332129   0.394403  -0.252865
Si   -34.830782   127.822422     1.688001  -0.339917   0.335973  -0.232113
Si   -32.417611   124.586877     3.581253  -0.278395   0.426161  -0.258973
Si   -32.369563   121.286823     1.657471  -0.230347   0.451840  -0.262642
Si   -29.255574   123.575716     1.633625  -0.251890   0.523578  -0.286488
Si   -31.614652   123.508418     1.653335  -0.259319   0.456280  -0.266778
Si   -29.210533   120.270789     3.553330  -0.206849   0.544384  -0.286896
Si   -29.169763   116.961369     1.633671  -0.166079   0.560698  -0.286442
Si   -26.053870   119.260335     1.610074  -0.185718   0.642508  -0.310039
Si   -28.410713   119.190471     1.627527  -0.190911   0.572644  -0.292586
Si   -26.015493   115.945443     3.533156  -0.147340   0.653350  -0.307070
Si   -25.980364   112.627971     1.615709  -0.112211   0.661611  -0.304404
Si   -22.863740   114.931105     1.594091  -0.131119   0.747590  -0.326022
Si   -25.218375   114.862364     1.608952  -0.134105   0.678849  -0.311161
Si   -22.830344   111.609083     3.518469  -0.097723   0.751301  -0.321757
Si   -22.799403   108.286005     1.601549  -0.066782   0.753956  -0.318564
Si   -19.682339   107.263547     3.502948  -0.085249  -2.485657   1.582834
Si   -22.035312   110.523403     1.595256  -0.086574   0.774199  -0.324857
Si   -19.652594   103.937417     1.586750  -0.055505  -2.486054   1.586750
Si   -19.624449   100.611451     3.509199  -0.027360  -2.486286   1.589086
Si   -16.507074   102.912006     3.493851  -0.045517  -2.402887   1.573738
Si   -18.859006   102.849750     3.504178  -0.045800  -2.465143   1.584065
Si   -16.479546    99.584737     1.576024  -0.017989  -2.404422   1.576024
Si   -16.452598    96.258785     3.496463   0.008960  -2.404641   1.576350
Si   -13.335054    98.554246     3.484768  -0.009027  -2.326335   1.564655
Si   -15.686656    98.495923     3.493363  -0.008981  -2.384659   1.573250
Si   -13.307973    95.228933     1.564270   0.018053  -2.325915   1.564270
Si   -13.280262    91.906157     3.481666   0.045764  -2.322958   1.561553
Si   -10.162737    94.194250     3.473960   0.027758  -2.252021   1.553847
Si   -12.514866    94.139976     3.481087   0.027278  -2.306294   1.560974
Si   -10.133947    90.874197     1.549859   0.056548  -2.246340   1.549859
Si   -10.103063    87.558006     3.463192   0.087432  -2.236797   1.543079
Si    -6.985946    89.836326     3.460058   0.069017  -2.175633   1.539945
Si    -9.339531    89.786201     3.465790   0.067081  -2.225758   1.545677
Si    -6.952870    86.524960     1.531444   0.102093  -2.161265   1.531444
Si    -6.915855    83.218823     3.439630   0.139108  -2.141669   1.519517
Si    -3.800032    85.484768     3.442077   0.119399  -2.092880   1.521963
Si    -6.155909    85.439015     3.446200   0.115172  -2.138633   1.526087
Si    -3.759642    82.185468     1.508019   0.159789  -2.066446   1.508019
Si    -3.712987    78.892633     3.409905   0.206444  -2.033548   1.489792
Si    -0.600026    81.143707     3.419511   0.183874  -1.999629   1.499398
Si    -2.958812    81.102592     3.421421   0.176737  -2.040745   1.501308
Si    -0.548896    77.859907     1.479101   0.235004  -1.957697   1.479101
Si    -0.488828    74.583502     3.373553   0.295072  -1.908367   1.453440
Si     0.257188    76.781326     3.391143   0.257205  -1.927700   1.471030
Si   -53.566788   177.379968     0.103658  -0.262735   0.007517   0.103658
Si   -54.376527   175.175284     0.095008  -0.288591   0.019988   0.095008
Si   -53.649380   170.749126     0.084610  -0.345326   0.028142   0.084610
Si   -50.494385   172.936527     0.104476  -0.325863  -0.001613   0.104476
Si   -53.608267   174.064616     2.015078  -0.304213   0.017898   0.094965
Si   -51.305486   170.734151     0.093717  -0.353081   0.013167   0.093717
Si   -50.581830   166.311811     0.079159  -0.413308   0.025138   0.079159
Si   -47.428225   168.497950     0.102242  -0.395234  -0.005878   0.102242
Si   -50.538636   169.624565     2.012982  -0.370114   0.012159   0.092869
Si   -48.240656   166.297738     0.088707  -0.423782   0.011065   0.088707
Si   -47.520231   161.879189     0.068406  -0.487240   0.026827   0.068406
Si   -44.370479   164.065538     0.095394  -0.473019  -0.003980   0.095394
Si   -47.475597   165.189490     2.006791  -0.442606   0.011395   0.086677
Si   -45.183463   161.867021     0.078079  -0.502121   0.014659   0.078079
Si   -44.463813   157.451704     0.049569  -0.566354   0.033654   0.049569
Si   -41.323357   159.640626     0.080954  -0.561429   0.005420   0.080954
Si   -44.420444   160.760326     1.994305  -0.522985   0.016542   0.074192
Si   -42.134066   157.442724     0.058428  -0.588256   0.024674   0.058428
Si   -41.406635   153.029656     0.018147  -0.644707   0.045917   0.018147
Si   -38.286648   155.224278     0.053141  -0.660251   0.023383   0.053141
Si   -41.372536   156.337696     1.971593  -0.610608   0.028223   0.051480
Si   -39.086765   153.025244     0.023789  -0.676486   0.041505   0.023789
Si   -38.328675   148.615982     3.808135  -0.702279   0.066554  -0.032091
Si   -35.246322   150.817542     0.001150  -0.755458   0.050958   0.001150
Si   -38.323058   151.922102     1.931881  -0.696662   0.046941   0.011768
Si   -36.016186   148.617994     3.805359  -0.741439   0.068566  -0.034867
Si   -35.187751   144.228713     3.734838  -0.696886   0.113596  -0.105388
Si   -32.140886   146.436035     3.750819  -0.785554   0.103763  -0.089407
Si   -35.238303   147.519862     1.865804  -0.747439   0.079012  -0.054309
Si   -32.862105   144.247670     3.716586  -0.722889   0.132554  -0.123640
Si   -31.956986   139.908999     3.647030  -0.601653   0.228194  -0.193197
Si   -28.888492   142.154596     3.628690  -0.668691   0.256635  -0.211536
Si   -32.054491   143.168254     1.770740  -0.699159   0.161715  -0.149373
Si   -29.600135   139.971043     3.613713  -0.596451   0.290237  -0.226513
Si   -28.690327   135.658317     3.568101  -0.470526   0.411823  -0.272126
Si   -25.590377   137.976422     3.524751  -0.506107   0.512772  -0.315476
Si   -28.778481   138.916000     1.669985  -0.558680   0.343773  -0.250128
Si   -26.325228   135.758097     3.531190  -0.457075   0.511603  -0.309036
Si   -25.448218   131.412170     3.513805  -0.363948   0.599988  -0.326421
Si   -22.347616   133.763326     3.465614  -0.398878   0.733988  -0.374612
Si   -25.513108   134.702642     1.595798  -0.428839   0.564725  -0.324315
Si   -23.091272   131.517231     3.482013  -0.358651   0.705048  -0.358214
Si   -22.233749   127.131082     3.482933  -0.285011   0.753211  -0.357293
Si   -19.136721   126.154872     1.519663  -0.323514  -2.440155   1.519663
Si   -22.287557   130.448742     1.554019  -0.338819   0.745137  -0.366094
Si   -19.882738   123.900146     1.538183  -0.285649  -2.477726   1.538183
Si   -19.034459   119.489636     1.548039  -0.221253  -2.453925   1.548039
Si   -15.936199   121.827140     1.512622  -0.258524  -2.333576   1.512622
Si   -19.082604   122.820977     3.455100  -0.269397  -2.448317   1.534987
Si   -16.685287   119.572250     1.529839  -0.223729  -2.371310   1.529839
Si   -15.844218   115.148982     1.542765  -0.166543  -2.360267   1.542765
Si   -12.741937   117.473072     1.515244  -0.199794  -2.253333   1.515244
Si   -15.887101   118.486221     3.449371  -0.209426  -2.348762   1.529258
Si   -13.495212   115.220587     1.529746  -0.169185  -2.288662   1.529746
Si   -12.661245   110.790429     1.542279  -0.119101  -2.284509   1.542279
Si    -9.554766   113.100550     1.522064  -0.148154  -2.191544   1.522064
Si   -12.698803   114.129816     3.450543  -0.156660  -2.270856   1.530430
Si   -10.312113   110.851693     1.533284  -0.121619  -2.223245   1.533284
Si    -9.484089   106.418317     1.543352  -0.077477  -2.222310   1.543352
Si    -6.374326   108.712863     1.529719  -0.103246  -2.144919   1.529719
Si    -9.517316   109.757219     3.454471  -0.110704  -2.209140   1.534358
Si    -7.134683   106.469221     1.537465  -0.079720  -2.171405   1.537465
Si    -6.310088   102.036331     1.543829  -0.039008  -2.169984   1.543829
Si    -3.197934   104.313085     1.536164  -0.062385  -2.110386   1.536164
Si    -6.340887   105.371883     3.458484  -0.069807  -2.160166   1.538371
Si    -3.959921   102.076717     1.540412  -0.040489  -2.129598   1.540412
Si    -3.135562    97.648487     1.542350  -0.000014  -2.123517   1.542350
Si    -0.021642    99.905248     1.540283  -0.021624  -2.083912   1.540283
Si    -3.166194   100.977499     3.460929  -0.030646  -2.120238   1.540816
Si    -0.783914    97.678283     1.541061  -0.000014  -2.093720   1.541061
Si     0.043518    93.258897     1.538203   0.043536  -2.078795   1.538203
Si     0.010753    96.578232     3.460915   0.010770  -2.085194   1.540802
Si   -54.417122   171.859106     2.005469  -0.329185   0.029544   0.085356
Si   -54.456597   168.542319     0.074052  -0.368660   0.038491   0.074052
Si   -54.493766   165.224336     1.981179  -0.405829   0.046241   0.061066
Si   -51.348177   167.420725     2.001053  -0.395772   0.025474   0.080939
Si   -53.689160   167.432866     1.992628  -0.385106   0.037615   0.072515
Si   -51.388580   164.105934     0.066118  -0.436175   0.036416   0.066118
Si   -51.424738   160.789125     1.969410  -0.472333   0.045341   0.049297
Si   -48.285068   162.986874     1.991832  -0.468194   0.025935   0.071719
Si   -50.622279   162.997454     1.983406  -0.453756   0.036515   0.063293
Si   -48.324737   159.673570     0.052220  -0.507863   0.038364   0.052220
Si   -48.356532   156.357336     1.950584  -0.539658   0.047863   0.030471
Si   -45.227608   158.558083     1.975361  -0.546266   0.031454   0.055248
Si   -47.559180   158.566134     1.967623  -0.526190   0.039506   0.047509
Si   -45.262052   155.245455     0.029531  -0.580710   0.044560   0.029531
Si   -45.282339   151.929554     1.921833  -0.600997   0.054392   0.001720
Si   -42.171734   154.134609     1.947619  -0.625923   0.042292   0.027505
Si   -44.495645   154.139143     1.942147  -0.598185   0.046826   0.022034
Si   -42.190576   150.822493     3.834234  -0.644766   0.055910  -0.005993
Si   -42.186730   147.509187     1.879925  -0.640920   0.068337  -0.040188
Si   -39.102095   149.718087     1.902691  -0.691817   0.060081  -0.017422
Si   -41.418941   149.718031     1.902695  -0.657013   0.060025  -0.017419
Si   -39.086801   146.410929     3.781591  -0.676522   0.078656  -0.058635
Si   -39.045222   143.108643     1.823427  -0.634943   0.102105  -0.096686
Si   -35.981479   145.320943     1.835080  -0.706732   0.097249  -0.085033
Si   -38.301735   145.311937     1.845430  -0.675339   0.088242  -0.074683
Si   -35.917832   142.032590     3.711736  -0.643084   0.134629  -0.128490
Si   -35.842727   138.751122     1.756941  -0.567980   0.178895  -0.163172
Si   -32.771403   140.980903     1.749034  -0.632187   0.191520  -0.171079
Si   -35.113747   140.947123     1.772459  -0.622882   0.157740  -0.147654
Si   -32.681722   137.716274     3.635303  -0.542506   0.252625  -0.204923
Si   -32.601753   134.446101     1.692191  -0.462537   0.308185  -0.227922
Si   -29.505933   136.717824     1.665684  -0.502249   0.362752  -0.254429
Si   -31.867749   136.646647     1.697158  -0.512416   0.291575  -0.222955
Si   -29.428354   133.448885     3.569502  -0.424670   0.419547  -0.270724
Si   -29.362767   130.166879     1.640291  -0.359083   0.463274  -0.279822
Si   -26.255650   132.476380     1.604827  -0.387497   0.555619  -0.315286
Si   -28.617793   132.383795     1.635965  -0.397992   0.463034  -0.284148
Si   -26.195886   129.182152     3.523557  -0.327734   0.587125  -0.316669
Si   -26.143219   125.879874     1.604641  -0.275067   0.610580  -0.315473
Si   -23.035538   128.204955     1.568732  -0.302917   0.718505  -0.351381
Si   -25.391575   128.111710     1.595021  -0.307305   0.625261  -0.325092
Si   -22.985581   124.889314     3.495978  -0.252960   0.728598  -0.344248
Si   -22.940704   121.571458     1.582680  -0.208083   0.736476  -0.337433
Si   -19.833308   120.571261     3.470732  -0.236218  -2.480877   1.550619
Si   -22.185441   123.811630     1.571215  -0.236703   0.759492  -0.348898
Si   -19.789224   117.243516     1.561250  -0.192134  -2.482888   1.561250
Si   -19.749859   113.916479     3.490243  -0.152770  -2.484192   1.570130
Si   -16.641055   116.236036     3.463593  -0.179498  -2.381791   1.543480
Si   -18.991680   116.159967     3.479108  -0.178473  -2.457860   1.558995
Si   -16.602094   112.902384     1.554473  -0.140536  -2.389709   1.554473
Si   -16.567421   109.570695     3.483181  -0.105863  -2.395665   1.563068
Si   -13.456369   111.881483     3.462263  -0.130343  -2.302033   1.542149
Si   -15.806489   111.814478     3.473631  -0.128814  -2.369037   1.553517
Si   -13.422064   108.545569     1.551614  -0.096038  -2.312213   1.551614
Si   -13.391118   105.212501     3.478522  -0.065092  -2.319548   1.558408
Si   -10.277956   107.512418     3.463184  -0.087461  -2.236787   1.543071
Si   -12.627943   107.454404     3.471274  -0.085800  -2.294800   1.551161
Si   -10.247069   104.177138     1.549854  -0.056575  -2.246333   1.549854
Si   -10.218278   100.845720     3.473957  -0.027783  -2.252017   1.553844
Si    -7.103483   103.132540     3.463965  -0.048520  -2.182352   1.543852
Si    -9.453776   103.083659     3.469453  -0.047164  -2.231233   1.549340
Si    -7.074102    99.800934     1.547230  -0.019139  -2.188225   1.547230
Si    -7.045433    96.474361     3.467823   0.009530  -2.189065   1.547710
Si    -3.929463    98.745768     3.463066  -0.010031  -2.134814   1.542953
Si    -6.280743    98.706147     3.466387  -0.009662  -2.174435   1.546274
Si    -3.899370    95.421073     1.542448   0.020062  -2.133775   1.542448
Si    -3.868546    92.102640     3.458995   0.050885  -2.126474   1.538882
Si    -0.751899    94.356250     3.459620   0.032001  -2.090020   1.539507
Si    -3.104931    94.326026     3.460932   0.030618  -2.120244   1.540819
Si    -0.718762    91.041662     1.534790   0.065138  -2.078874   1.534790
Si    -0.683317    87.734623     3.446858   0.100583  -2.060181   1.526744
Si     0.077797    89.947317     3.452508   0.077814  -2.064642   1.532395
Si   -53.405950   190.650193     0.124248  -0.101896  -0.025192   0.124248
Si   -54.215572   188.444707     0.119001  -0.127635  -0.013522   0.119001
Si   -53.484961   184.012488     0.116542  -0.180907  -0.011430   0.116542
Si   -50.323596   186.190754     0.133100  -0.155074  -0.050320   0.133100
Si   -53.445094   187.330533     2.041099  -0.141040  -0.019118   0.120985
Si   -51.134495   183.988740     0.126533  -0.182090  -0.035179   0.126533
Si   -50.406862   179.561176     0.121977  -0.238340  -0.028431   0.121977
Si   -47.243354   181.733526     0.141073  -0.210363  -0.073237   0.141073
Si   -50.364622   182.875120     2.048357  -0.196100  -0.040220   0.128244
Si   -48.056256   179.535476     0.132940  -0.239383  -0.054131   0.132940
Si   -47.333033   175.113647     0.125826  -0.300043  -0.041648   0.125826
Si   -44.166547   177.279666     0.148203  -0.269088  -0.092785   0.148203
Si   -47.287302   178.422730     2.054464  -0.254311  -0.058299   0.134351
Si   -44.982379   175.086181     0.138066  -0.301037  -0.069115   0.138066
Si   -44.265547   170.671284     0.127551  -0.368088  -0.049700   0.127551
Si   -41.095258   172.830253     0.154416  -0.333330  -0.107887   0.154416
Si   -44.214845   173.974628     2.059222  -0.317386  -0.072089   0.139109
Si   -41.915213   170.642192     0.141506  -0.369402  -0.078792   0.141506
Si   -41.207466   166.235764     0.126012  -0.445538  -0.050909   0.126012
Si   -38.032601   168.386547     0.159335  -0.406205  -0.117282   0.159335
Si   -41.149850   169.532213     2.062120  -0.387922  -0.080194   0.142007
Si   -38.858303   166.205273     0.142264  -0.448024  -0.081400   0.142264
Si   -38.163324   161.809502     0.118706  -0.536928  -0.042859   0.118706
Si   -34.983478   163.950677     0.161783  -0.492613  -0.118840   0.161783
Si   -38.096272   165.097451     2.061916  -0.469876  -0.080644   0.141803
Si   -35.817319   161.778398     0.137900  -0.542571  -0.073964   0.137900
Si   -35.139651   157.396208     0.099801  -0.648786  -0.021842   0.099801
Si   -31.956879   159.527452     0.158304  -0.601546  -0.107755   0.158304
Si   -35.060587   160.673831     2.055532  -0.569722  -0.069953   0.135419
Si   -32.802251   157.367349     0.121990  -0.663035  -0.050702   0.121990
Si   -32.140806   153.000414     0.054558  -0.785473   0.016675   0.054558
Si   -28.973630   155.129656     0.137195  -0.753828  -0.071239   0.137195
Si   -32.054380   156.268186     2.034616  -0.699047  -0.041287   0.114503
Si   -29.828749   152.982427     0.074899  -0.825065  -0.001312   0.074899
Si   -29.114405   148.630568     3.787219  -0.894603   0.081140  -0.053007
Si   -26.078328   150.788881     0.042467  -0.994058   0.022298   0.042467
Si   -29.091553   151.891552     1.972485  -0.871752   0.016390   0.052372
Si   -26.834648   148.641607     3.771441  -0.966496   0.092180  -0.068785
Si   -25.831482   144.420418     3.598227  -0.747212   0.305301  -0.241999
Si   -22.781563   146.780942     3.523435  -0.832825   0.448669  -0.316791
Si   -26.026526   147.584463     1.788580  -0.942257   0.143613  -0.131533
Si   -23.443539   144.605995     3.513060  -0.710918   0.490878  -0.327166
Si   -22.495096   140.366942     3.456403  -0.546358   0.686136  -0.383824
Si   -19.435604   139.564981     1.423071  -0.622398  -2.332980   1.423071
Si   -22.599144   143.627968     1.546736  -0.650406   0.621430  -0.373377
Si   -20.147833   137.244221     1.468525  -0.550743  -2.436584   1.468525
Si   -19.265341   132.836620     1.480865  -0.452134  -2.409874   1.480865
Si   -16.218925   135.279573     1.397084  -0.541250  -2.184077   1.397084
Si   -19.342652   136.190765     3.375834  -0.529445  -2.381463   1.455721
Si   -16.934228   132.976116     1.438064  -0.472670  -2.270378   1.438064
Si   -16.057255   128.527366     1.467486  -0.379580  -2.284816   1.467486
Si   -13.001034   130.913284     1.406774  -0.458891  -2.116055   1.406774
Si   -16.131736   131.893612     3.356793  -0.454061  -2.244304   1.436680
Si   -13.723018   128.629640     1.440319  -0.396991  -2.182543   1.440319
Si   -12.850827   124.175303     1.472593  -0.308683  -2.202569   1.472593
Si    -9.780088   126.528517     1.428809  -0.373476  -2.066510   1.428809
Si   -12.919826   127.538138     3.363446  -0.377683  -2.165467   1.443333
Si   -10.510911   124.257054     1.455575  -0.320417  -2.120818   1.455575
Si    -9.648563   119.801970     1.485748  -0.241951  -2.141591   1.485748
Si    -6.564914   122.133380     1.455079  -0.293834  -2.027336   1.455079
Si    -9.708579   123.161472     3.380474  -0.301967  -2.107822   1.460361
Si    -7.304946   119.869004     1.475703  -0.249983  -2.074556   1.475703
Si    -6.454712   115.411512     1.501511  -0.183632  -2.097737   1.501511
Si    -3.361990   117.722395     1.481304  -0.226441  -2.004010   1.481304
Si    -6.505062   118.769454     3.401053  -0.233981  -2.065528   1.480940
Si    -4.109555   115.464050     1.496364  -0.190123  -2.045199   1.496364
Si    -3.269581   111.004246     1.516746  -0.134032  -2.070691   1.516746
Si    -0.170925   113.291522     1.504971  -0.170908  -2.000571   1.504971
Si    -3.312327   114.359957     3.421405  -0.176778  -2.040715   1.501292
Si    -0.923593   111.041163     1.515075  -0.139693  -2.033774   1.515075
Si    -0.089835   106.582467     1.529706  -0.089818  -2.058159   1.529706
Si    -0.128068   109.932932     3.439392  -0.128051  -2.033428   1.519279
Si   -54.254983   185.125753     2.035083  -0.167046  -0.006743   0.114970
Si   -54.295044   181.808116     0.109702  -0.207107   0.001353   0.109702
Si   -54.335656   178.491442     2.023200  -0.247719   0.010413   0.103087
Si   -51.176050   180.673700     2.040867  -0.223645  -0.024484   0.120754
Si   -53.525571   180.695762     2.030921  -0.221517  -0.002422   0.110808
Si   -51.218635   177.359951     0.113472  -0.266230  -0.012501   0.113472
Si   -51.261976   174.046980     2.024629  -0.309570   0.000263   0.104516
Si   -48.100991   176.225102     2.045148  -0.284118  -0.038772   0.125035
Si   -50.450230   176.248498     2.034231  -0.281707  -0.015376   0.114118
Si   -48.147131   172.915881     0.115192  -0.330258  -0.022259   0.115192
Si   -48.194068   169.607069     2.023269  -0.377194  -0.005338   0.103155
Si   -45.031677   171.781307     2.047479  -0.350335  -0.048255   0.127366
Si   -47.380252   171.805663     2.035329  -0.347262  -0.023900   0.115216
Si   -45.082644   168.477293     0.114018  -0.401302  -0.026535   0.114018
Si   -45.133996   165.172989     2.017780  -0.452654  -0.005106   0.097667
Si   -41.970888   167.343889     2.046918  -0.425078  -0.051362   0.126805
Si   -44.317942   167.368686     2.033218  -0.420483  -0.026565   0.113105
Si   -42.028101   164.045815     0.108289  -0.482291  -0.023702   0.108289
Si   -42.084060   160.746083     2.005638  -0.538250   0.002299   0.085525
Si   -38.922730   162.915023     2.041416  -0.512451  -0.045916   0.121303
Si   -41.266445   162.939286     2.025919  -0.504518  -0.021654   0.105806
Si   -38.987208   159.623482     0.094587  -0.576929  -0.011724   0.094587
Si   -39.045159   156.327529     1.981945  -0.634881   0.018057   0.061832
Si   -35.893240   158.498060     2.026289  -0.618493  -0.028568   0.106176
Si   -38.229532   158.519596     2.009308  -0.603136  -0.007033   0.089195
Si   -35.962496   155.212492     0.065567  -0.687749   0.011597   0.065567
Si   -36.008861   151.918102     1.937349  -0.734114   0.042941   0.017236
Si   -32.888728   154.097533     1.989924  -0.749512   0.005216   0.069811
Si   -35.208212   154.111697     1.974452  -0.717347   0.019380   0.054339
Si   -32.940451   150.814622     0.005445  -0.801236   0.048038   0.005445
Si   -32.929320   147.526120     1.857403  -0.790105   0.085270  -0.062710
Si   -29.884157   149.718267     1.902702  -0.880473   0.060261  -0.017411
Si   -32.177636   149.718230     1.902693  -0.822303   0.060224  -0.017420
Si   -29.828865   146.454087     3.730487  -0.825181   0.121815  -0.109739
Si   -29.713408   143.211104     1.739650  -0.709724   0.204565  -0.180463
Si   -26.678583   145.443360     1.727481  -0.810431   0.219666  -0.192632
Si   -29.017206   145.383685     1.772898  -0.797405   0.159990  -0.147215
Si   -26.522551   142.249900     3.579701  -0.654399   0.351939  -0.260525
Si   -26.410276   139.019698     1.626475  -0.542123   0.447470  -0.293638
Si   -23.314952   141.390975     1.561906  -0.582331   0.601591  -0.358207
Si   -25.689549   141.221410     1.627004  -0.605279   0.432027  -0.293109
Si   -23.226119   138.119148     3.474878  -0.493498   0.655498  -0.365348
Si   -23.153931   134.823727     1.556494  -0.421310   0.685811  -0.363620
Si   -20.068816   133.901199     3.409471  -0.471726  -2.453872   1.489358
Si   -22.415453   137.071840     1.538604  -0.466715   0.716768  -0.381509
Si   -19.999750   130.564075     1.507666  -0.402660  -2.465264   1.507666
Si   -19.938041   127.230796     3.444003  -0.340952  -2.472809   1.523890
Si   -16.859001   129.610213     3.388615  -0.397443  -2.310547   1.468502
Si   -19.197366   129.492685     3.421905  -0.384160  -2.428075   1.501792
Si   -16.793327   126.257105     1.493035  -0.331769  -2.337922   1.493035
Si   -16.735742   122.912044     3.433312  -0.274184  -2.357249   1.513199
Si   -13.652251   125.265714     3.390387  -0.326224  -2.220736   1.470274
Si   -15.992556   125.173321     3.412428  -0.314881  -2.313129   1.492314
Si   -13.591734   121.911287     1.494457  -0.265708  -2.249429   1.494457
Si   -13.539874   118.563501     3.434139  -0.213848  -2.271481   1.514026
Si   -10.448454   120.896931     3.402166  -0.257960  -2.155207   1.482053
Si   -12.792092   120.821076     3.416321  -0.249948  -2.231062   1.496208
Si   -10.395744   117.543378     1.503304  -0.205249  -2.183027   1.503304
Si   -10.350871   114.195205     3.440289  -0.160376  -2.205466   1.520176
Si    -7.252291   116.510728     3.417638  -0.197328  -2.107099   1.497525
Si    -9.597940   116.448622     3.426166  -0.191328  -2.169205   1.506053
Si    -7.207581   113.158165     1.514699  -0.152618  -2.133928   1.514699
Si    -7.168919   109.811056     3.447970  -0.113956  -2.155304   1.527857
Si    -4.065188   112.107564     3.433215  -0.145757  -2.075952   1.513101
Si    -6.411746   112.059366     3.437688  -0.140666  -2.124150   1.517575
Si    -4.026492   108.757546     1.525742  -0.107060  -2.100236   1.525742
Si    -3.991860   105.413955     3.454854  -0.072429  -2.118094   1.534741
Si    -0.884516   107.689044     3.446849  -0.100616  -2.060160   1.526736
Si    -3.231958   107.655307     3.448346  -0.096409  -2.093897   1.528233
Si    -0.849069   104.344610     1.534784  -0.065169  -2.078861   1.534784
Si    -0.815931   101.007724     3.459617  -0.032031  -2.090013   1.539504
Si    -0.054783   103.239959     3.456739  -0.054766  -2.074934   1.536626
Si   -53.329259   197.295117     0.127555  -0.025206  -0.031735   0.127555
Si   -50.977630   197.268037     0.137463  -0.025225  -0.058815   0.137463
Si   -50.244726   192.828217     0.139176  -0.076204  -0.064324   0.139176
Si   -47.083142   195.000478     0.154464  -0.050151  -0.109218   0.154464
Si   -50.206407   196.150391     2.060728  -0.037885  -0.067883   0.140615
Si   -47.892674   192.797401     0.149803  -0.075800  -0.095139   0.149803
Si   -47.160645   188.361821     0.150097  -0.127654  -0.096409   0.150097
Si   -43.997180   190.526024     0.167316  -0.099721  -0.149361   0.167316
Si   -47.121414   191.679789     2.072905  -0.088423  -0.104174   0.152792
Si   -44.807688   188.327344     0.161615  -0.126346  -0.130885   0.161615
Si   -44.077592   183.897072     0.160585  -0.180133  -0.126846   0.160585
Si   -40.911058   186.052465     0.180130  -0.149130  -0.188608   0.180130
Si   -44.036506   187.210035     2.084645  -0.139047  -0.139617   0.164532
Si   -41.723377   183.858732     0.173324  -0.177567  -0.165186   0.173324
Si   -40.996790   179.434681     0.171021  -0.234862  -0.154926   0.171021
Si   -37.825928   181.579845     0.193631  -0.199532  -0.226918   0.193631
Si   -40.952547   182.741847     2.096415  -0.190619  -0.173493   0.176302
Si   -38.641067   179.391786     0.185532  -0.230788  -0.197821   0.185532
Si   -37.920109   174.974868     0.181886  -0.293713  -0.180428   0.181886
Si   -34.743506   177.107123     0.208853  -0.252641  -0.265329   0.208853
Si   -37.871014   178.275260     2.108866  -0.244618  -0.205769   0.188753
Si   -35.562672   174.925895     0.199068  -0.287925  -0.229400   0.199068
Si   -34.850151   170.517317     0.193776  -0.359287  -0.203667   0.193776
Si   -31.666009   172.631593     0.227343  -0.310676  -0.306547   0.227343
Si   -34.793965   173.809411     2.122902  -0.303100  -0.237307   0.202789
Si   -32.490692   170.459237     0.215143  -0.351477  -0.261747   0.215143
Si   -31.790539   166.061090     0.207449  -0.435206  -0.225583   0.207449
Si   -28.596122   168.147357     0.251729  -0.376320  -0.356472   0.251729
Si   -31.724053   169.342053     2.139879  -0.368720  -0.270353   0.219766
Si   -29.428286   165.987721     0.235779  -0.424602  -0.298952   0.235779
Si   -28.746872   161.604353     0.223989  -0.527070  -0.248009   0.223989
Si   -25.537110   163.640515     0.287390  -0.452840  -0.429003   0.287390
Si   -28.664632   164.868159     2.162168  -0.444830  -0.309936   0.242055
Si   -26.379563   161.501296     0.265247  -0.511410  -0.351066   0.265247
Si   -25.730524   157.142988     0.245517  -0.646254  -0.275063   0.245517
Si   -22.495009   159.069870     0.348853  -0.546271  -0.565336   0.348853
Si   -25.620171   160.374595     2.195201  -0.535902  -0.369189   0.275087
Si   -23.351124   156.964978     0.316932  -0.618503  -0.453072   0.316932
Si   -22.781234   152.655551     0.281963  -0.832496  -0.328188   0.281963
Si   -19.515978   154.271291     0.493181  -0.702772  -0.929604   0.493181
Si   -22.599005   155.808764     2.258549  -0.650267  -0.500709   0.338436
Si   -20.391811   152.122486     0.479420  -0.794721  -0.861253   0.479420
Si   -19.932587   146.714396     1.178703  -1.119380  -1.835032   1.178703
Si   -16.768290   149.219861     0.858177  -1.090615  -1.546722   0.858177
Si   -19.741589   150.712425     2.519098  -0.928382  -1.162736   0.598985
Si   -17.571264   146.878873     1.042505  -1.109706  -1.670555   1.042505
Si   -16.476885   142.176070     1.257326  -0.799210  -1.939046   1.257326
Si   -13.505777   144.623559     1.095687  -0.963633  -1.708713   1.095687
Si   -16.700685   145.716986     3.022405  -1.023010  -1.723865   1.102292
Si   -14.176791   142.294733     1.194537  -0.850764  -1.820384   1.194537
Si   -13.212527   137.723135     1.298834  -0.670384  -1.957670   1.298834
Si   -10.210864   140.109573     1.199930  -0.804252  -1.788388   1.199930
Si   -13.352573   141.167565     3.134551  -0.810430  -1.838973   1.214438
Si   -10.897799   137.809378     1.263868  -0.707304  -1.871427   1.263868
Si    -9.965667   133.293695     1.340521  -0.559055  -1.952799   1.340521
Si    -6.938058   135.651523     1.273697  -0.666978  -1.812127   1.273697
Si   -10.082106   136.695945     3.198723  -0.675494  -1.876282   1.278610
Si    -7.637321   133.368806     1.320543  -0.582358  -1.877688   1.320543
Si    -6.722210   128.880080     1.383095  -0.451130  -1.932103   1.383095
Si    -3.672274   131.227495     1.337933  -0.536726  -1.801844   1.337933
Si    -6.823101   132.263054     3.254118  -0.552020  -1.874862   1.334005
Si    -4.384739   128.950003     1.373080  -0.465308  -1.862180   1.373080
Si    -3.490613   124.466080     1.424534  -0.355065  -1.911791   1.424534
Si    -0.425143   126.802824     1.395797  -0.425126  -1.792203   1.395797
Si    -3.574058   127.845497     3.305734  -0.438509  -1.858108   1.385621
Si    -1.150229   124.525295     1.421428  -0.366329  -1.852577   1.421428
Si    -0.277436   120.033125     1.462455  -0.277418  -1.910435   1.462455
Si    -0.345112   123.415207     3.352777  -0.345095  -1.854086   1.432664
Si   -54.100458   198.411753     2.044633  -0.012521  -0.023677   0.124520
Si   -54.138469   195.087557     0.123714  -0.050532  -0.022140   0.123714
Si   -54.176777   191.765247     2.042004  -0.088840  -0.018716   0.121891
Si   -51.015826   193.944947     2.056458  -0.063420  -0.056171   0.136345
Si   -53.367404   193.971676     2.046530  -0.063350  -0.029443   0.126417
Si   -51.054535   190.624127     0.134206  -0.102129  -0.051258   0.134206
Si   -51.094024   187.305455     2.051084  -0.141618  -0.044196   0.130971
Si   -47.931602   189.478303     2.067533  -0.114729  -0.088504   0.147419
Si   -50.283698   189.508383     2.056815  -0.115176  -0.058424   0.136702
Si   -47.971667   186.161747     0.143922  -0.154794  -0.079327   0.143922
Si   -48.013156   182.847560     2.059273  -0.196283  -0.067781   0.139159
Si   -44.848203   185.013058     2.078098  -0.166861  -0.119438   0.157985
Si   -47.201194   185.046461     2.066362  -0.168204  -0.086035   0.146249
Si   -44.890650   181.701598     0.153034  -0.209307  -0.105164   0.153034
Si   -44.935327   178.392757     2.066613  -0.253985  -0.088273   0.146500
Si   -41.766688   180.550037     2.088506  -0.220878  -0.148148   0.168392
Si   -44.120838   180.587021     2.075355  -0.223379  -0.111164   0.155242
Si   -41.812928   177.244580     0.161750  -0.267117  -0.127872   0.161750
Si   -41.862414   173.942127     2.073075  -0.316604  -0.104590   0.152961
Si   -38.688764   176.089587     2.099212  -0.278486  -0.174286   0.179099
Si   -41.044250   176.130896     2.084004  -0.282322  -0.132978   0.163891
Si   -38.740689   172.791360     0.170257  -0.330410  -0.146780   0.170257
Si   -38.797231   169.496847     2.078382  -0.386952  -0.115559   0.158269
Si   -35.616835   171.631532     2.110783  -0.342088  -0.198030   0.190670
Si   -37.973830   171.678719     2.092475  -0.347434  -0.150843   0.172361
Si   -35.677112   168.342581     0.178594  -0.402364  -0.161248   0.178594
Si   -35.744108   165.058723     2.081639  -0.469360  -0.119372   0.161526
Si   -32.554217   167.175103     2.123926  -0.415001  -0.220148   0.203813
Si   -34.913087   167.231191     2.100736  -0.422223  -0.164060   0.180623
Si   -32.627124   163.899431     0.186350  -0.487908  -0.170087   0.186350
Si   -32.710620   160.631599     2.080221  -0.571404  -0.112185   0.160108
Si   -29.505845   162.718740     2.139615  -0.502161  -0.242199   0.219502
Si   -31.867660   162.789831     2.108155  -0.512327  -0.171108   0.188041
Si   -29.600020   159.465483     0.191609  -0.596336  -0.169723   0.191609
Si   -29.713270   156.225400     2.065702  -0.709586  -0.084073   0.145589
Si   -26.480894   158.259218     2.159556  -0.612742  -0.267411   0.239443
Si   -28.848993   158.359535     2.111997  -0.629192  -0.167093   0.191884
Si   -26.621175   155.054603     0.185765  -0.753022  -0.146292   0.185765
Si   -26.793476   151.866481     2.001805  -0.925323  -0.008681   0.081692
Si   -23.506334   153.784314     2.189595  -0.773713  -0.308003   0.269482
Si   -25.892625   153.960800     2.098910  -0.808356  -0.131517   0.178797
Si   -23.818270   150.745925     0.094361  -1.085649  -0.020658   0.094361
Si   -23.697155   147.686060     1.706668  -0.964534   0.245210  -0.213445
Si   -21.133188   148.056541     2.861150  -1.536098  -1.601465   0.941037
Si   -23.167369   149.718233     1.902933  -1.218631   0.060227  -0.017180
Si   -20.392051   143.988830     1.405652  -0.794962  -2.343443   1.405652
Si   -20.244910   140.598347     3.363680  -0.647820  -2.408192   1.443567
Si   -17.304386   143.294802     3.165939  -0.842828  -1.928893   1.245826
Si   -19.568548   142.994930     3.289863  -0.755341  -2.228764   1.369750
Si   -17.134516   139.790599     1.342102  -0.672958  -2.107362   1.342102
Si   -17.022533   136.363565     3.318643  -0.560975  -2.208663   1.398530
Si   -14.025353   138.833899     3.208718  -0.699326  -1.955484   1.288605
Si   -16.326650   138.699030     3.262616  -0.648975  -2.090353   1.342503
Si   -13.904682   135.406111     1.354192  -0.578656  -2.057539   1.354192
Si   -13.806051   132.007545     3.322832  -0.480025  -2.130371   1.402719
Si   -10.777158   134.399166     3.250080  -0.586663  -1.955906   1.329967
Si   -13.097138   134.306100     3.280306  -0.554994  -2.048972   1.360193
Si   -10.673262   131.005251     1.381658  -0.482768  -2.024088   1.381658
Si   -10.585156   127.625605     3.342795  -0.394661  -2.078000   1.422682
Si    -7.532392   129.982734     3.292575  -0.477429  -1.938026   1.372462
Si    -9.865191   129.905114     3.309691  -0.458579  -2.015647   1.389578
Si    -7.442837   126.604404     1.414457  -0.387874  -1.990623   1.414457
Si    -7.367701   123.233381     3.368498  -0.312738  -2.035913   1.448385
Si    -4.296876   125.570737     3.334530  -0.377444  -1.915712   1.414417
Si    -6.636574   125.503516     3.343017  -0.365493  -1.982934   1.422904
Si    -4.223144   122.196034     1.447941  -0.303713  -1.964682   1.447941
Si    -4.161481   118.826953     3.395027  -0.242050  -2.008029   1.474914
Si    -1.079031   121.143818     3.373528  -0.295131  -1.908320   1.453414
Si    -3.420654   121.091309     3.376150  -0.285105  -1.960829   1.456037
Si    -1.018954   117.768749     1.479080  -0.235054  -1.957655   1.479080
Si    -0.967816   114.401077     3.419495  -0.183916  -1.999595   1.499382
Si    -0.220075   116.658316     3.406374  -0.220058  -1.959511   1.486261
Si   -43.921975   197.167272     0.170033  -0.024516  -0.159580   0.170033
Si   -41.569844   197.126775     0.181744  -0.024034  -0.200077   0.181744
Si   -40.834224   192.683987     0.184568  -0.072296  -0.208554   0.184568
Si   -37.672616   194.836505     0.201717  -0.046220  -0.273191   0.201717
Si   -40.797774   196.004809     2.105667  -0.035846  -0.213465   0.185554
Si   -38.480740   192.638907     0.196986  -0.070461  -0.253634   0.196986
Si   -37.745151   188.200867     0.199348  -0.118755  -0.257362   0.199348
Si   -34.580979   190.343751     0.217952  -0.090115  -0.331634   0.217952
Si   -37.708168   191.516932     2.120959  -0.081771  -0.267031   0.200846
Si   -35.390041   188.150802     0.212817  -0.115294  -0.307427   0.212817
Si   -34.655980   183.717210     0.215412  -0.165116  -0.306708   0.215412
Si   -31.488442   185.849324     0.235852  -0.133109  -0.391750   0.235852
Si   -34.617278   187.028606     2.137119  -0.126413  -0.321045   0.217006
Si   -32.299240   183.661001     0.230511  -0.160024  -0.362917   0.230511
Si   -31.568540   179.230666     0.234244  -0.213207  -0.358941   0.234244
Si   -28.397231   181.349859     0.257209  -0.177430  -0.456904   0.257209
Si   -31.526762   182.537933     2.155536  -0.171429  -0.377407   0.235423
Si   -29.210515   179.166003     0.251892  -0.206831  -0.423604   0.251892
Si   -28.485291   174.736267     0.258105  -0.265490  -0.419029   0.258105
Si   -25.310603   176.839060     0.284643  -0.226334  -0.533391   0.284643
Si   -28.438993   178.040750     2.178221  -0.219191  -0.440279   0.258108
Si   -26.126951   174.659042     0.279742  -0.258799  -0.496254   0.279742
Si   -25.409653   170.224112     0.290799  -0.325383  -0.496872   0.290799
Si   -22.233735   172.305880     0.322278  -0.284997  -0.632260   0.322278
Si   -25.357370   173.529136     2.208312  -0.273100  -0.517582   0.288199
Si   -23.053407   170.127403     0.318729  -0.320786  -0.593581   0.318729
Si   -22.347573   165.673564     0.339616  -0.398835  -0.613109   0.339616
Si   -19.176359   167.731763     0.377034  -0.363153  -0.772065   0.377034
Si   -22.287529   168.988182     2.251202  -0.338791  -0.624224   0.331089
Si   -19.999710   165.547177     0.377434  -0.402621  -0.739496   0.377434
Si   -19.315541   161.040089     0.420398  -0.502335  -0.812273   0.420398
Si   -16.159095   163.091823     0.460407  -0.481420  -0.977694   0.460407
Si   -19.241742   164.390174     2.316977  -0.428536  -0.787921   0.396864
Si   -16.991162   160.880175     0.472026  -0.529604  -0.972187   0.472026
Si   -16.370077   156.261265     0.566247  -0.692402  -1.156786   0.566247
Si   -13.212407   158.388354     0.586196  -0.670264  -1.246852   0.586196
Si   -16.251801   159.696689     2.424137  -0.574126  -1.047095   0.504024
Si   -14.071998   156.127344     0.623842  -0.745971  -1.290706   0.623842
Si   -13.505619   151.487929     0.789269  -0.963475  -1.495810   0.789269
Si   -10.296016   153.724813     0.748661  -0.889404  -1.476082   0.748661
Si   -13.352411   154.943940     2.590675  -0.810268  -1.365533   0.670562
Si   -11.152977   151.459226     0.815275  -0.962482  -1.524513   0.815275
Si   -10.411377   146.924802     0.983787  -1.004765  -1.624626   0.983787
Si    -7.263528   149.179364     0.907093  -0.992448  -1.587220   0.907093
Si   -10.394583   150.318592     2.780708  -0.987972  -1.556569   0.860595
Si    -8.049318   146.930325     0.979011  -0.994354  -1.619103   0.979011
Si    -7.174210   142.429854     1.112728  -0.903130  -1.685262   1.112728
Si    -4.098082   144.708559     1.039235  -0.962533  -1.623713   1.039235
Si    -7.251330   145.808043     2.933046  -0.980250  -1.632807   1.012933
Si    -4.829330   142.461035     1.102866  -0.909899  -1.654082   1.102866
Si    -3.903075   137.985518     1.210823  -0.767526  -1.695287   1.210823
Si    -0.852128   140.310669     1.153672  -0.852110  -1.587292   1.153672
Si    -4.015135   141.352838     3.050137  -0.879587  -1.653701   1.130024
Si    -1.560357   138.050242     1.206204  -0.776457  -1.630563   1.206204
Si    -0.625577   133.579142     1.295753  -0.625560  -1.667352   1.295753
Si    -0.740476   136.954604     3.150324  -0.740459  -1.617624   1.230211
Si   -47.854531   196.119147     2.071294  -0.037658  -0.099127   0.151181
Si   -44.693626   198.288084     2.086460  -0.012284  -0.147346   0.166346
Si   -47.045430   198.323950     2.075307  -0.012439  -0.111480   0.155194
Si   -44.730852   194.964811     0.165675  -0.049510  -0.144886   0.165675
Si   -44.768717   191.644575     2.084243  -0.087375  -0.139388   0.164130
Si   -41.606319   193.804794     2.101057  -0.060509  -0.196325   0.180944
Si   -43.959164   193.845095     2.089224  -0.061704  -0.156024   0.169111
Si   -41.643708   190.486112     0.179370  -0.097897  -0.189273   0.179370
Si   -41.682551   187.170753     2.097008  -0.136740  -0.178899   0.176894
Si   -38.517487   189.321646     2.115693  -0.107208  -0.245161   0.195580
Si   -40.871799   189.366525     2.102924  -0.109872  -0.200282   0.182811
Si   -38.556046   186.007949     0.193379  -0.145767  -0.233125   0.193379
Si   -38.597033   182.697947     2.110255  -0.186754  -0.217394   0.190142
Si   -35.428192   184.838269     2.131317  -0.153445  -0.294227   0.211204
Si   -37.784192   184.888446     2.117149  -0.157796  -0.244050   0.197036
Si   -35.469183   181.529690     0.208672  -0.194436  -0.277073   0.208672
Si   -35.513744   178.225423     2.124927  -0.238997  -0.255606   0.204814
Si   -32.340115   180.352785     2.149284  -0.200899  -0.345400   0.229171
Si   -34.697799   180.409901     2.132960  -0.206935  -0.288284   0.212847
Si   -32.384982   177.049176     0.226655  -0.245766  -0.323275   0.226655
Si   -32.434783   173.750982     2.142411  -0.295567  -0.295736   0.222298
Si   -29.255546   175.861024     2.171612  -0.251862  -0.402849   0.251499
Si   -31.614615   175.928226     2.151915  -0.259282  -0.335647   0.231802
Si   -29.305829   172.561701     0.249524  -0.302144  -0.376438   0.249524
Si   -29.362716   169.269769     2.164975  -0.359031  -0.342637   0.244862
Si   -26.177599   171.354670     2.201602  -0.309446  -0.474892   0.281489
Si   -28.537164   171.437769     2.176512  -0.317363  -0.391793   0.256399
Si   -26.234766   168.057336     0.281171  -0.366613  -0.446493   0.281171
Si   -26.300621   164.770745     2.197018  -0.432468  -0.407351   0.276905
Si   -23.111266   166.816653     2.245373  -0.378645  -0.578598   0.325260
Si   -25.468744   166.926422     2.211357  -0.384475  -0.468828   0.291244
Si   -23.176669   163.512999     0.329789  -0.444048  -0.556518   0.329789
Si   -23.253193   160.223415     2.249516  -0.520572  -0.520369   0.329403
Si   -20.068758   162.210033     2.315859  -0.471669  -0.750906   0.395746
Si   -22.415392   162.365015     2.266637  -0.466654  -0.595925   0.346524
Si   -20.147753   158.867001     0.416581  -0.550663  -0.768205   0.416581
Si   -20.244789   155.512883     2.361649  -0.647700  -0.796590   0.441536
Si   -17.093140   157.469351     2.441498  -0.631583  -1.057277   0.521385
Si   -19.401991   157.674431     2.370004  -0.588785  -0.852197   0.449891
Si   -17.237047   153.996498     0.599822  -0.775489  -1.204397   0.599822
Si   -17.481208   150.425326     2.676848  -1.019650  -1.449835   0.756735
Si   -14.232888   152.658845     2.651048  -0.906862  -1.433472   0.730935
Si   -16.543323   152.759638     2.588801  -0.865648  -1.332679   0.668688
Si   -14.371324   149.200423     0.884014  -1.045297  -1.566161   0.884014
Si   -14.337135   145.762714     2.976856  -1.011109  -1.678136   1.056743
Si   -11.207145   148.055734     2.862594  -1.016650  -1.602272   0.942481
Si   -13.586575   148.055727     2.862578  -1.044432  -1.602279   0.942464
Si   -11.153085   144.652261     1.069699  -0.962590  -1.680011   1.069699
Si   -11.030970   141.232127     3.098517  -0.840476  -1.774412   1.178404
Si    -7.988084   143.549242     3.004682  -0.933121  -1.674452   1.084569
Si   -10.334884   143.523843     3.021167  -0.928273  -1.699852   1.101054
Si    -7.879327   140.157830     1.178085  -0.824364  -1.740131   1.178085
Si    -7.755724   136.761801     3.176589  -0.700761  -1.810426   1.256476
Si    -4.722589   139.091716     3.107999  -0.803157  -1.697667   1.187886
Si    -7.060512   139.042441     3.120371  -0.789432  -1.746942   1.200258
Si    -4.602955   135.713933     1.261111  -0.683523  -1.749717   1.261111
Si    -4.487545   132.332021     3.242587  -0.568114  -1.805895   1.322474
Si    -1.443783   134.679785     3.195550  -0.659883  -1.675287   1.275437
Si    -3.784050   134.608913     3.200163  -0.648501  -1.746158   1.280050
Si    -1.332940   131.297789     1.333726  -0.549040  -1.731549   1.333726
Si    -1.234540   127.911144     3.302078  -0.450640  -1.792461   1.381965
Si    -0.518858   130.192640     3.270708  -0.518841  -1.728121   1.350595
Si   -34.512916   196.984406     0.218699  -0.022052  -0.342446   0.218699
Si   -32.160517   196.930465     0.231352  -0.021301  -0.396387   0.231352
Si   -31.419230   192.482661     0.235752  -0.063897  -0.409880   0.235752
Si   -28.260138   194.619001     0.252677  -0.040336  -0.490695   0.252677
Si   -31.386960   195.804057     2.155722  -0.031627  -0.414217   0.235609
Si   -29.065375   192.424420     0.248834  -0.061691  -0.468121   0.248834
Si   -28.324117   187.978750     0.254613  -0.104316  -0.479480   0.254613
Si   -25.163166   190.107713     0.271542  -0.078896  -0.567672   0.271542
Si   -28.291331   191.297591     2.173595  -0.071530  -0.486372   0.253482
Si   -25.969277   187.915433     0.268555  -0.101125  -0.542797   0.268555
Si   -25.230348   183.468741     0.277224  -0.146078  -0.555177   0.277224
Si   -22.067708   185.590430     0.294104  -0.118970  -0.650644   0.294104
Si   -25.195465   186.787237     2.194181  -0.111195  -0.562415   0.274068
Si   -22.875564   183.398904     0.292616  -0.142943  -0.625014   0.292616
Si   -22.142072   178.946108     0.306247  -0.193334  -0.643499   0.306247
Si   -18.978525   181.061106     0.322847  -0.165318  -0.745656   0.322847
Si   -22.103045   182.267834     2.219731  -0.154307  -0.647507   0.299618
Si   -19.789244   178.867878     0.323813  -0.192155  -0.721729   0.323813
Si   -19.065923   174.401063     0.345495  -0.252717  -0.754233   0.345495
Si   -15.902747   176.512089     0.360972  -0.225072  -0.860362   0.360972
Si   -19.019655   177.731810     2.253260  -0.206448  -0.749220   0.333147
Si   -16.718184   174.313136     0.365957  -0.256626  -0.842159   0.365957
Si   -16.013122   169.821120     0.400473  -0.335447  -0.899864   0.400473
Si   -12.850827   171.936209     0.412459  -0.308684  -1.001931   0.412459
Si   -15.954130   173.169595     2.298882  -0.276455  -0.877123   0.378768
Si   -13.674599   169.725691     0.424054  -0.348573  -0.995293   0.424054
Si   -13.000983   165.198192     0.478280  -0.458839  -1.088481   0.478280
Si    -9.835156   167.333172     0.481419  -0.428544  -1.170656   0.481419
Si   -12.919802   168.573350     2.361836  -0.377659  -1.039057   0.441723
Si   -10.673207   165.106271     0.503386  -0.482713  -1.180402   0.503386
Si   -10.041495   160.551176     0.584127  -0.634884  -1.301186   0.584127
Si    -6.859957   162.719538     0.569781  -0.588877  -1.349979   0.569781
Si    -9.930322   163.948838     2.447022  -0.523710  -1.229257   0.526908
Si    -7.714988   160.481358     0.605699  -0.660025  -1.371004   0.605699
Si    -7.100435   155.939207     0.712373  -0.829355  -1.478844   0.712373
Si    -3.902978   158.126033     0.674192  -0.767429  -1.509173   0.674192
Si    -6.978501   159.329751     2.554376  -0.707421  -1.414032   0.634263
Si    -4.760613   155.895590     0.724210  -0.841182  -1.522461   0.724210
Si    -4.098025   151.402943     0.845763  -0.962476  -1.580796   0.845763
Si    -0.915685   153.576938     0.787975  -0.915668  -1.623957   0.787975
Si    -4.015043   154.758686     2.675095  -0.879495  -1.550787   0.754982
Si    -1.747479   151.375550     0.848054  -0.963579  -1.608189   0.848054
Si    -0.988628   146.954105     0.974206  -0.988611  -1.595323   0.974206
Si    -0.978914   150.259696     2.799407  -0.978897  -1.615466   0.879294
Si   -38.445196   195.959630     2.117871  -0.034917  -0.258645   0.197758
Si   -35.285882   198.109765     2.134650  -0.011135  -0.325665   0.214537
Si   -37.637879   198.159501     2.122190  -0.011483  -0.275929   0.202077
Si   -35.319538   194.786708     0.214329  -0.044791  -0.322988   0.214329
Si   -35.354043   191.467014     2.133907  -0.079295  -0.316949   0.213794
Si   -32.192872   193.608195     2.151497  -0.053656  -0.392924   0.231384
Si   -34.546411   193.662403     2.138583  -0.055547  -0.338715   0.218470
Si   -32.226327   190.289057     0.231355  -0.087111  -0.386328   0.231355
Si   -32.261553   186.973231     2.151247  -0.122337  -0.376421   0.231134
Si   -29.097896   189.105107     2.169745  -0.094212  -0.461701   0.249632
Si   -31.452831   189.164345     2.155997  -0.097498  -0.402463   0.235884
Si   -29.132457   185.788682     0.250564  -0.128773  -0.452392   0.250564
Si   -29.169754   182.475478     2.171535  -0.166070  -0.439862   0.251422
Si   -26.003468   184.597121     2.191203  -0.135315  -0.535375   0.271090
Si   -28.359184   184.662715     2.176044  -0.139383  -0.469781   0.255931
Si   -26.040676   181.281263     0.274002  -0.172524  -0.525500   0.274002
Si   -26.081596   177.968321     2.197138  -0.213443  -0.512708   0.277025
Si   -22.913322   180.078425     2.218320  -0.180701  -0.619760   0.298207
Si   -25.268500   180.152524     2.200953  -0.184230  -0.545660   0.280840
Si   -22.955136   176.759379     0.304617  -0.222515  -0.613072   0.304617
Si   -23.001626   173.442134     2.231712  -0.269005  -0.604584   0.311599
Si   -19.833314   175.540088     2.254569  -0.236225  -0.723786   0.334456
Si   -22.185440   175.625374     2.233985  -0.236702  -0.638499   0.313872
Si   -19.882730   172.211164     0.346902  -0.285640  -0.726976   0.346902
Si   -19.938018   168.880482     2.281316  -0.340928  -0.731925   0.361203
Si   -16.773275   170.970042     2.304994  -0.311717  -0.859520   0.384881
Si   -19.117972   171.068107     2.280159  -0.304766  -0.761455   0.360046
Si   -16.836112   167.619997     0.407837  -0.374554  -0.883832   0.407837
Si   -16.907896   164.259058     2.356179  -0.446338  -0.919037   0.436066
Si   -13.749168   166.357684     2.376413  -0.423142  -1.037567   0.456300
Si   -16.080863   166.463587     2.347203  -0.403188  -0.931664   0.427090
Si   -13.836893   162.973752     0.497073  -0.510867  -1.095766   0.497073
Si   -13.941907   159.566432     2.470500  -0.615881  -1.177352   0.550387
Si   -10.777070   161.712350     2.475183  -0.586576  -1.248589   0.555070
Si   -13.097055   161.805375     2.444967  -0.554912  -1.155564   0.524854
Si   -10.897680   158.302138     0.621154  -0.707185  -1.333068   0.621154
Si   -11.030832   154.879384     2.626709  -0.840338  -1.430089   0.706596
Si    -7.838370   157.085631     2.599217  -0.783407  -1.440997   0.679104
Si   -10.167067   157.140628     2.576852  -0.760455  -1.386000   0.656739
Si    -7.955226   153.691710     0.767656  -0.900263  -1.509185   0.767656
Si    -8.036272   150.307131     2.789988  -0.981309  -1.568030   0.869875
Si    -4.857815   152.529709     2.732889  -0.938384  -1.562608   0.812776
Si    -7.205496   152.554442     2.724493  -0.934415  -1.537875   0.804380
Si    -4.909508   149.173370     0.909435  -0.990077  -1.593213   0.909435
Si    -4.898768   145.820135     2.928474  -0.979337  -1.620715   1.008361
Si    -1.776780   148.055738     2.862612  -0.992880  -1.602267   0.942499
Si    -4.129075   148.055747     2.862611  -0.993527  -1.602259   0.942497
Si    -1.747531   144.735938     1.036945  -0.963631  -1.596334   1.036945
Si    -1.668550   141.402881     3.046229  -0.884650  -1.603658   1.126116
Si    -0.941901   143.642499     2.987406  -0.941884  -1.581195   1.067293
Si   -25.103517   196.753916     0.268762  -0.019247  -0.572936   0.268762
Si   -22.751362   196.691972     0.280593  -0.018741  -0.634880   0.280593
Si   -22.005260   192.237951     0.286655  -0.056522  -0.654590   0.286655
Si   -18.849749   194.370750     0.300089  -0.036542  -0.738946   0.300089
Si   -21.976666   195.562774     2.204884  -0.027928  -0.655500   0.284771
Si   -19.652664   192.174215     0.298251  -0.055574  -0.718325   0.298251
Si   -18.908639   187.717054     0.307938  -0.095432  -0.741175   0.307938
Si   -15.752301   189.850022     0.318998  -0.074626  -0.825363   0.318998
Si   -18.878237   191.044137     2.223274  -0.065031  -0.739826   0.303161
Si   -16.556718   187.651127     0.319581  -0.095160  -0.807103   0.319581
Si   -15.818613   183.185858     0.334810  -0.140938  -0.838060   0.334810
Si   -12.661325   185.321257     0.342734  -0.119181  -0.919817   0.342734
Si   -15.783749   186.518918     2.245841  -0.106074  -0.830734   0.325728
Si   -13.468816   183.117492     0.346667  -0.142790  -0.906426   0.346667
Si   -12.741981   178.638513     0.369793  -0.199837  -0.951094   0.369793
Si    -9.582879   180.779636     0.373188  -0.176267  -1.027127   0.373188
Si   -12.698866   181.981816     2.274710  -0.156722  -0.933524   0.354597
Si   -10.395795   178.568256     0.381728  -0.205300  -1.021350   0.381728
Si    -9.687424   174.070717     0.415592  -0.280812  -1.084579   0.415592
Si    -6.523891   176.221587     0.412076  -0.252811  -1.150864   0.412076
Si    -9.630791   177.428080     2.312109  -0.224179  -1.052949   0.391995
Si    -7.345546   174.000424     0.426870  -0.290583  -1.154872   0.426870
Si    -6.663462   169.483293     0.474480  -0.392382  -1.237691   0.474480
Si    -3.490629   171.645588     0.460497  -0.355081  -1.292552   0.460497
Si    -6.587392   172.855582     2.360033  -0.316312  -1.191136   0.439920
Si    -4.324506   169.414915     0.483458  -0.405075  -1.306070   0.483458
Si    -3.672224   164.884113     0.547096  -0.536675  -1.402560   0.547096
Si    -0.486059   167.048910     0.518360  -0.486042  -1.454918   0.518360
Si    -3.574041   168.266140     2.419524  -0.438492  -1.346267   0.499411
Si    -1.332896   164.813839     0.551302  -0.548996  -1.472834   0.551302
Si    -0.701737   160.280373     0.631732  -0.701720  -1.571989   0.631732
Si    -0.588691   163.660509     2.489960  -0.588674  -1.517586   0.569847
Si   -29.034209   195.746411     2.168412  -0.030525  -0.471863   0.248299
Si   -25.877890   197.882649     2.184701  -0.009737  -0.552781   0.264588
Si   -28.229854   197.942841     2.172396  -0.010053  -0.492589   0.252283
Si   -25.907185   194.558346     0.265222  -0.039033  -0.551351   0.265222
Si   -25.937415   191.235903     2.186677  -0.069262  -0.548060   0.266564
Si   -22.779832   193.367220     2.202056  -0.047211  -0.633899   0.281943
Si   -25.132751   193.429978     2.189866  -0.048481  -0.571140   0.269753
Si   -22.809533   190.043412     0.284418  -0.076912  -0.631973   0.284418
Si   -22.841202   186.720611     2.208105  -0.108581  -0.629041   0.287992
Si   -19.682397   188.848017     2.222297  -0.085308  -0.718790   0.302184
Si   -22.035358   188.913822     2.209884  -0.086620  -0.652986   0.289771
Si   -19.714538   185.521627     0.307727  -0.117449  -0.719447   0.307727
Si   -19.749893   182.194966     2.235034  -0.152804  -0.720374   0.314921
Si   -16.590165   184.319947     2.247549  -0.128607  -0.812549   0.327436
Si   -18.941789   184.389428     2.234588  -0.128582  -0.743068   0.314475
Si   -16.627573   180.986948     0.337619  -0.166015  -0.819815   0.337619
Si   -16.669924   177.651629     2.270468  -0.208366  -0.829400   0.350355
Si   -13.509434   179.777154     2.280252  -0.183407  -0.921031   0.360139
Si   -15.857927   179.850468     2.266573  -0.180252  -0.847716   0.346459
Si   -13.556319   176.432720     0.377084  -0.230293  -0.939732   0.377084
Si   -13.610877   173.082926     2.318211  -0.284851  -0.963792   0.398098
Si   -10.448482   175.214663     2.323100  -0.257988  -1.049210   0.402987
Si   -12.792115   175.290468     2.308951  -0.249971  -0.973405   0.388838
Si   -10.510914   171.854508     0.429469  -0.320419  -1.083632   0.429469
Si   -10.585131   168.485932     2.382478  -0.394636  -1.126475   0.462365
Si    -7.416276   170.631655     2.378568  -0.361313  -1.197907   0.458455
Si    -9.754837   170.706348     2.365062  -0.348225  -1.123215   0.444949
Si    -7.500809   167.255807     0.497575  -0.445846  -1.248021   0.497575
Si    -7.600599   163.872299     2.466063  -0.545636  -1.305796   0.545950
Si    -4.417333   166.034456     2.447828  -0.497902  -1.360795   0.527715
Si    -6.754088   166.104541     2.437294  -0.483008  -1.290710   0.517181
Si    -4.524800   162.652070     0.581743  -0.605368  -1.417447   0.581743
Si    -4.642918   159.271013     2.567080  -0.723486  -1.472771   0.646967
Si    -1.443710   161.431809     2.529699  -0.659810  -1.529131   0.609586
Si    -3.783970   161.502666     2.525087  -0.648421  -1.458274   0.604974
Si    -1.560267   158.061314     0.678811  -0.776367  -1.573892   0.678811
Si    -1.668465   154.708638     2.679003  -0.884565  -1.600835   0.758890
Si    -0.816206   156.916974     2.624752  -0.816189  -1.609654   0.704639
Si   -15.695767   196.507066     0.312053  -0.018092  -0.819786   0.312053
Si   -13.344228   196.448645     0.320688  -0.018202  -0.878207   0.320688
Si   -12.597817   191.990351     0.327647  -0.055673  -0.902190   0.327647
Si    -9.444255   194.138887     0.334259  -0.037643  -0.970810   0.334259
Si   -12.569571   195.320436     2.244103  -0.027427  -0.897838   0.323990
Si   -10.247194   191.934719     0.335122  -0.056699  -0.957821   0.335122
Si    -9.505946   187.468016     0.347291  -0.099334  -0.990214   0.347291
Si    -6.351813   189.626942     0.349127  -0.080732  -1.048443   0.349127
Si    -9.473844   190.805550     2.259422  -0.067232  -0.978413   0.339309
Si    -7.157206   187.415294     0.353558  -0.102243  -1.042935   0.353558
Si    -6.425462   182.935650     0.372329  -0.154382  -1.088268   0.372329
Si    -3.269704   185.107593     0.368252  -0.134155  -1.133480   0.368252
Si    -6.386400   186.284073     2.279033  -0.115320  -1.065579   0.358920
Si    -4.079364   182.886122     0.377003  -0.159933  -1.137796   0.377003
Si    -3.362064   178.389349     0.403716  -0.226516  -1.200258   0.403716
Si    -0.202982   180.576660     0.391987  -0.202965  -1.230102   0.391987
Si    -3.312427   181.751832     2.303832  -0.176878  -1.163508   0.383719
Si    -1.019037   178.343019     0.405938  -0.235137  -1.246588   0.405938
Si    -0.321321   173.824605     0.441705  -0.321304  -1.330690   0.441705
Si    -0.257351   177.204434     2.334127  -0.257334  -1.276595   0.414014
Si   -19.624529   195.500254     2.216008  -0.027439  -0.718020   0.295895
Si   -16.470649   197.635901     2.228721  -0.009092  -0.799528   0.308608
Si   -18.822347   197.696923     2.218801  -0.009141  -0.738507   0.298688
Si   -16.497876   194.308997     0.310258  -0.036318  -0.800699   0.310258
Si   -16.526266   190.980762     2.234006  -0.064708  -0.803201   0.313893
Si   -13.371927   193.119878     2.243540  -0.045900  -0.881241   0.323427
Si   -15.723287   193.179372     2.234586  -0.045612  -0.821747   0.314473
Si   -13.401226   189.788528     0.328567  -0.075199  -0.886858   0.328567
Si   -13.433151   186.454476     2.256357  -0.107125  -0.895176   0.336243
Si   -10.278064   188.599375     2.262035  -0.087569  -0.967432   0.341922
Si   -12.628039   188.657341     2.253951  -0.085896  -0.909466   0.333838
Si   -10.312204   185.260041     0.351724  -0.121709  -0.981033   0.351724
Si   -10.350943   181.916476     2.284958  -0.160448  -0.998865   0.364845
Si    -7.194205   184.069904     2.285615  -0.139242  -1.062592   0.365502
Si    -9.541813   184.126132     2.278572  -0.135202  -1.006364   0.358459
Si    -7.236681   180.719133     0.381288  -0.181718  -1.087629   0.381288
Si    -7.286436   177.362753     2.321600  -0.231473  -1.118276   0.401487
Si    -4.126002   179.527437     2.315358  -0.206570  -1.170748   0.395244
Si    -6.470648   179.581543     2.309945  -0.199567  -1.116642   0.389832
Si    -4.180893   176.162394     0.418443  -0.261461  -1.210057   0.418443
Si    -4.246291   172.791320     2.367592  -0.326859  -1.255398   0.447479
Si    -1.079085   174.967911     2.351724  -0.295185  -1.295963   0.431611
Si    -3.420700   175.020395     2.349103  -0.285151  -1.243479   0.428990
Si    -1.150252   171.586399     0.463602  -0.366352  -1.351741   0.463602
Si    -1.234529   168.200517     2.423179  -0.450629  -1.411889   0.503066
Si    -0.396999   170.438522     2.396196  -0.396982  -1.391041   0.476083
Si    -6.290601   196.296400     0.339158  -0.019521  -1.030452   0.339158
Si    -3.939705   196.256654     0.342497  -0.020273  -1.070198   0.342497
Si    -3.198098   191.798874     0.348804  -0.062550  -1.093667   0.348804
Si    -0.043778   193.984499     0.346756  -0.043761  -1.125197   0.346756
Si    -3.166377   195.134528     2.264246  -0.030829  -1.083746   0.344133
Si    -0.849246   191.767369     0.350183  -0.065346  -1.125172   0.350183
Si    -0.115038   187.296689     0.361824  -0.115021  -1.161540   0.361824
Si    -0.078038   190.644541     2.272698  -0.078021  -1.139422   0.352585
Si   -10.218417   195.266208     2.251226  -0.027923  -0.952066   0.331113
Si    -7.064689   197.420511     2.257343  -0.009726  -1.014919   0.337230
Si    -9.416056   197.468105     2.252095  -0.009444  -0.967325   0.331982
Si    -7.093697   194.090511     0.339654  -0.038734  -1.019185   0.339654
Si    -7.124145   190.755461     2.265151  -0.069182  -1.028502   0.345038
Si    -3.970511   192.923544     2.266198  -0.051080  -1.077574   0.346085
Si    -6.320289   192.964360     2.262726  -0.049209  -1.036758   0.342613
Si    -4.003188   189.584132     0.352856  -0.083757  -1.091253   0.352856
Si    -4.038992   186.238348     2.283155  -0.119560  -1.111304   0.363042
Si    -0.884672   188.422874     2.278361  -0.100772  -1.143934   0.358248
Si    -3.232102   188.456589     2.276864  -0.096553  -1.110218   0.356751
Si    -0.923726   185.070699     0.369923  -0.139826  -1.170375   0.369923
Si    -0.967926   181.710736     2.305741  -0.184026  -1.204604   0.385628
Si    -0.156157   183.940770     2.294915  -0.156139  -1.191726   0.374801
Si    -0.816128   195.104322     2.265557  -0.032228  -1.113952   0.345444
Si    -0.011031   197.316710     2.264247  -0.011014  -1.118720   0.344134
