2160
Lattice="60.000000 0 0 0 199.544008 0 0 0 3.840226" Origin="-58.000000 0 0" Properties=species:S:1:pos:R:3 pbc="F T T" frame="x=outward normal [1,-1,1], y=[1,-1,-2], z=beam [110]; A" state="perfect"
Si   -53.304054     4.434311     0.000000
Si   -54.087937     2.217156     0.000000
Si   -50.168522     0.000000     0.000000
Si   -53.304054     1.108578     1.920113
Si   -53.304054    17.737245     0.000000
Si   -54.087937    15.520089     0.000000
Si   -53.304054    11.085778     0.000000
Si   -50.168522    13.302934     0.000000
Si   -53.304054    14.411512     1.920113
Si   -50.952405    11.085778     0.000000
Si   -50.168522     6.651467     0.000000
Si   -47.032991     8.868623     0.000000
Si   -50.168522     9.977200     1.920113
Si   -47.816874     6.651467     0.000000
Si   -47.032991     2.217156     0.000000
Si   -43.897459     4.434311     0.000000
Si   -47.032991     5.542889     1.920113
Si   -44.681342     2.217156     0.000000
Si   -40.761928     0.000000     0.000000
Si   -43.897459     1.108578     1.920113
Si   -54.087937    12.194356     1.920113
Si   -54.087937     8.868623     0.000000
Si   -54.087937     5.542889     1.920113
Si   -50.952405     7.760045     1.920113
Si   -53.304054     7.760045     1.920113
Si   -50.952405     4.434311     0.000000
Si   -50.952405     1.108578     1.920113
Si   -47.816874     3.325733     1.920113
Si   -50.168522     3.325733     1.920113
Si   -47.816874     0.000000     0.000000
Si   -53.304054    31.040179     0.000000
Si   -54.087937    28.823023     0.000000
Si   -53.304054    24.388712     0.000000
Si   -50.168522    26.605868     0.000000
Si   -53.304054    27.714446     1.920113
Si   -50.952405    24.388712     0.000000
Si   -50.168522    19.954401     0.000000
Si   -47.032991    22.171556     0.000000
Si   -50.168522    23.280134     1.920113
Si   -47.816874    19.954401     0.000000
Si   -47.032991    15.520089     0.000000
Si   -43.897459    17.737245     0.000000
Si   -47.032991    18.845823     1.920113
Si   -44.681342    15.520089     0.000000
Si   -43.897459    11.085778     0.000000
Si   -40.761928    13.302934     0.000000
Si   -43.897459    14.411512     1.920113
Si   -41.545811    11.085778     0.000000
Si   -40.761928     6.651467     0.000000
Si   -37.626396     8.868623     0.000000
Si   -40.761928     9.977200     1.920113
Si   -38.410279     6.651467     0.000000
Si   -37.626396     2.217156     0.000000
Si   -34.490864     4.434311     0.000000
Si   -37.626396     5.542889     1.920113
Si   -35.274747     2.217156     0.000000
Si   -31.355333     0.000000     0.000000
Si   -34.490864     1.108578     1.920113
Si   -54.087937    25.497290     1.920113
Si   -54.087937    22.171556     0.000000
Si   -54.087937    18.845823     1.920113
Si   -50.952405    21.062979     1.920113
Si   -53.304054    21.062979     1.920113
Si   -50.952405    17.737245     0.000000
Si   -50.952405    14.411512     1.920113
Si   -47.816874    16.628667     1.920113
Si   -50.168522    16.628667     1.920113
Si   -47.816874    13.302934     0.000000
Si   -47.816874     9.977200     1.920113
Si   -44.681342    12.194356     1.920113
Si   -47.032991    12.194356     1.920113
Si   -44.681342     8.868623     0.000000
Si   -44.681342     5.542889     1.920113
Si   -41.545811     7.760045     1.920113
Si   -43.897459     7.760045     1.920113
Si   -41.545811     4.434311     0.000000
Si   -41.545811     1.108578     1.920113
Si   -38.410279     3.325733     1.920113
Si   -40.761928     3.325733     1.920113
Si   -38.410279     0.000000     0.000000
Si   -53.304054    44.343113     0.000000
Si   -54.087937    42.125957     0.000000
Si   -53.304054    37.691646     0.000000
Si   -50.168522    39.908802     0.000000
Si   -53.304054    41.017379     1.920113
Si   -50.952405    37.691646     0.000000
Si   -50.168522    33.257335     0.000000
Si   -47.032991    35.474490     0.000000
Si   -50.168522    36.583068     1.920113
Si   -47.816874    33.257335     0.000000
Si   -47.032991    28.823023     0.000000
Si   -43.897459    31.040179     0.000000
Si   -47.032991    32.148757     1.920113
Si   -44.681342    28.823023     0.000000
Si   -43.897459    24.388712     0.000000
Si   -40.761928    26.605868     0.000000
Si   -43.897459    27.714446     1.920113
Si   -41.545811    24.388712     0.000000
Si   -40.761928    19.954401     0.000000
Si   -37.626396    22.171556     0.000000
Si   -40.761928    23.280134     1.920113
Si   -38.410279    19.954401     0.000000
Si   -37.626396    15.520089     0.000000
Si   -34.490864    17.737245     0.000000
Si   -37.626396    18.845823     1.920113
Si   -35.274747    15.520089     0.000000
Si   -34.490864    11.085778     0.000000
Si   -31.355333    13.302934     0.000000
Si   -34.490864    14.411512     1.920113
Si   -32.139216    11.085778     0.000000
Si   -31.355333     6.651467     0.000000
Si   -28.219801     8.868623     0.000000
Si   -31.355333     9.977200     1.920113
Si   -29.003684     6.651467     0.000000
Si   -28.219801     2.217156     0.000000
Si   -25.084270     4.434311     0.000000
Si   -28.219801     5.542889     1.920113
Si   -25.868153     2.217156     0.000000
Si   -21.948738     0.000000     0.000000
Si   -25.084270     1.108578     1.920113
Si   -54.087937    38.800224     1.920113
Si   -54.087937    35.474490     0.000000
Si   -54.087937    32.148757     1.920113
Si   -50.952405    34.365912     1.920113
Si   -53.304054    34.365912     1.920113
Si   -50.952405    31.040179     0.000000
Si   -50.952405    27.714446     1.920113
Si   -47.816874    29.931601     1.920113
Si   -50.168522    29.931601     1.920113
Si   -47.816874    26.605868     0.000000
Si   -47.816874    23.280134     1.920113
Si   -44.681342    25.497290     1.920113
Si   -47.032991    25.497290     1.920113
Si   -44.681342    22.171556     0.000000
Si   -44.681342    18.845823     1.920113
Si   -41.545811    21.062979     1.920113
Si   -43.897459    21.062979     1.920113
Si   -41.545811    17.737245     0.000000
Si   -41.545811    14.411512     1.920113
Si   -38.410279    16.628667     1.920113
Si   -40.761928    16.628667     1.920113
Si   -38.410279    13.302934     0.000000
Si   -38.410279     9.977200     1.920113
Si   -35.274747    12.194356     1.920113
Si   -37.626396    12.194356     1.920113
Si   -35.274747     8.868623     0.000000
Si   -35.274747     5.542889     1.920113
Si   -32.139216     7.760045     1.920113
Si   -34.490864     7.760045     1.920113
Si   -32.139216     4.434311     0.000000
Si   -32.139216     1.108578     1.920113
Si   -29.003684     3.325733     1.920113
Si   -31.355333     3.325733     1.920113
Si   -29.003684     0.000000     0.000000
Si   -53.304054    57.646047     0.000000
Si   -54.087937    55.428891     0.000000
Si   -53.304054    50.994580     0.000000
Si   -50.168522    53.211735     0.000000
Si   -53.304054    54.320313     1.920113
Si   -50.952405    50.994580     0.000000
Si   -50.168522    46.560268     0.000000
Si   -47.032991    48.777424     0.000000
Si   -50.168522    49.886002     1.920113
Si   -47.816874    46.560268     0.000000
Si   -47.032991    42.125957     0.000000
Si   -43.897459    44.343113     0.000000
Si   -47.032991    45.451691     1.920113
Si   -44.681342    42.125957     0.000000
Si   -43.897459    37.691646     0.000000
Si   -40.761928    39.908802     0.000000
Si   -43.897459    41.017379     1.920113
Si   -41.545811    37.691646     0.000000
Si   -40.761928    33.257335     0.000000
Si   -37.626396    35.474490     0.000000
Si   -40.761928    36.583068     1.920113
Si   -38.410279    33.257335     0.000000
Si   -37.626396    28.823023     0.000000
Si   -34.490864    31.040179     0.000000
Si   -37.626396    32.148757     1.920113
Si   -35.274747    28.823023     0.000000
Si   -34.490864    24.388712     0.000000
Si   -31.355333    26.605868     0.000000
Si   -34.490864    27.714446     1.920113
Si   -32.139216    24.388712     0.000000
Si   -31.355333    19.954401     0.000000
Si   -28.219801    22.171556     0.000000
Si   -31.355333    23.280134     1.920113
Si   -29.003684    19.954401     0.000000
Si   -28.219801    15.520089     0.000000
Si   -25.084270    17.737245     0.000000
Si   -28.219801    18.845823     1.920113
Si   -25.868153    15.520089     0.000000
Si   -25.084270    11.085778     0.000000
Si   -21.948738    13.302934     0.000000
Si   -25.084270    14.411512     1.920113
Si   -22.732621    11.085778     0.000000
Si   -21.948738     6.651467     0.000000
Si   -18.813207     8.868623     0.000000
Si   -21.948738     9.977200     1.920113
Si   -19.597089     6.651467     0.000000
Si   -18.813207     2.217156     0.000000
Si   -15.677675     4.434311     0.000000
Si   -18.813207     5.542889     1.920113
Si   -16.461558     2.217156     0.000000
Si   -12.542143     0.000000     0.000000
Si   -15.677675     1.108578     1.920113
Si   -54.087937    52.103158     1.920113
Si   -54.087937    48.777424     0.000000
Si   -54.087937    45.451691     1.920113
Si   -50.952405    47.668846     1.920113
Si   -53.304054    47.668846     1.920113
Si   -50.952405    44.343113     0.000000
Si   -50.952405    41.017379     1.920113
Si   -47.816874    43.234535     1.920113
Si   -50.168522    43.234535     1.920113
Si   -47.816874    39.908802     0.000000
Si   -47.816874    36.583068     1.920113
Si   -44.681342    38.800224     1.920113
Si   -47.032991    38.800224     1.920113
Si   -44.681342    35.474490     0.000000
Si   -44.681342    32.148757     1.920113
Si   -41.545811    34.365912     1.920113
Si   -43.897459    34.365912     1.920113
Si   -41.545811    31.040179     0.000000
Si   -41.545811    27.714446     1.920113
Si   -38.410279    29.931601     1.920113
Si   -40.761928    29.931601     1.920113
Si   -38.410279    26.605868     0.000000
Si   -38.410279    23.280134     1.920113
Si   -35.274747    25.497290     1.920113
Si   -37.626396    25.497290     1.920113
Si   -35.274747    22.171556     0.000000
Si   -35.274747    18.845823     1.920113
Si   -32.139216    21.062979     1.920113
Si   -34.490864    21.062979     1.920113
Si   -32.139216    17.737245     0.000000
Si   -32.139216    14.411512     1.920113
Si   -29.003684    16.628667     1.920113
Si   -31.355333    16.628667     1.920113
Si   -29.003684    13.302934     0.000000
Si   -29.003684     9.977200     1.920113
Si   -25.868153    12.194356     1.920113
Si   -28.219801    12.194356     1.920113
Si   -25.868153     8.868623     0.000000
Si   -25.868153     5.542889     1.920113
Si   -22.732621     7.760045     1.920113
Si   -25.084270     7.760045     1.920113
Si   -22.732621     4.434311     0.000000
Si   -22.732621     1.108578     1.920113
Si   -19.597089     3.325733     1.920113
Si   -21.948738     3.325733     1.920113
Si   -19.597089     0.000000     0.000000
Si   -53.304054    70.948981     0.000000
Si   -54.087937    68.731825     0.000000
Si   -53.304054    64.297514     0.000000
Si   -50.168522    66.514669     0.000000
Si   -53.304054    67.623247     1.920113
Si   -50.952405    64.297514     0.000000
Si   -50.168522    59.863202     0.000000
Si   -47.032991    62.080358     0.000000
Si   -50.168522    63.188936     1.920113
Si   -47.816874    59.863202     0.000000
Si   -47.032991    55.428891     0.000000
Si   -43.897459    57.646047     0.000000
Si   -47.032991    58.754624     1.920113
Si   -44.681342    55.428891     0.000000
Si   -43.897459    50.994580     0.000000
Si   -40.761928    53.211735     0.000000
Si   -43.897459    54.320313     1.920113
Si   -41.545811    50.994580     0.000000
Si   -40.761928    46.560268     0.000000
Si   -37.626396    48.777424     0.000000
Si   -40.761928    49.886002     1.920113
Si   -38.410279    46.560268     0.000000
Si   -37.626396    42.125957     0.000000
Si   -34.490864    44.343113     0.000000
Si   -37.626396    45.451691     1.920113
Si   -35.274747    42.125957     0.000000
Si   -34.490864    37.691646     0.000000
Si   -31.355333    39.908802     0.000000
Si   -34.490864    41.017379     1.920113
Si   -32.139216    37.691646     0.000000
Si   -31.355333    33.257335     0.000000
Si   -28.219801    35.474490     0.000000
Si   -31.355333    36.583068     1.920113
Si   -29.003684    33.257335     0.000000
Si   -28.219801    28.823023     0.000000
Si   -25.084270    31.040179     0.000000
Si   -28.219801    32.148757     1.920113
Si   -25.868153    28.823023     0.000000
Si   -25.084270    24.388712     0.000000
Si   -21.948738    26.605868     0.000000
Si   -25.084270    27.714446     1.920113
Si   -22.732621    24.388712     0.000000
Si   -21.948738    19.954401     0.000000
Si   -18.813207    22.171556     0.000000
Si   -21.948738    23.280134     1.920113
Si   -19.597089    19.954401     0.000000
Si   -18.813207    15.520089     0.000000
Si   -15.677675    17.737245     0.000000
Si   -18.813207    18.845823     1.920113
Si   -16.461558    15.520089     0.000000
Si   -15.677675    11.085778     0.000000
Si   -12.542143    13.302934     0.000000
Si   -15.677675    14.411512     1.920113
Si   -13.326026    11.085778     0.000000
Si   -12.542143     6.651467     0.000000
Si    -9.406612     8.868623     0.000000
Si   -12.542143     9.977200     1.920113
Si   -10.190495     6.651467     0.000000
Si    -9.406612     2.217156     0.000000
Si    -6.271080     4.434311     0.000000
Si    -9.406612     5.542889     1.920113
Si    -7.054963     2.217156     0.000000
Si    -3.135549     0.000000     0.000000
Si    -6.271080     1.108578     1.920113
Si   -54.087937    65.406091     1.920113
Si   -54.087937    62.080358     0.000000
Si   -54.087937    58.754624     1.920113
Si   -50.952405    60.971780     1.920113
Si   -53.304054    60.971780     1.920113
Si   -50.952405    57.646047     0.000000
Si   -50.952405    54.320313     1.920113
Si   -47.816874    56.537469     1.920113
Si   -50.168522    56.537469     1.920113
Si   -47.816874    53.211735     0.000000
Si   -47.816874    49.886002     1.920113
Si   -44.681342    52.103158     1.920113
Si   -47.032991    52.103158     1.920113
Si   -44.681342    48.777424     0.000000
Si   -44.681342    45.451691     1.920113
Si   -41.545811    47.668846     1.920113
Si   -43.897459    47.668846     1.920113
Si   -41.545811    44.343113     0.000000
Si   -41.545811    41.017379     1.920113
Si   -38.410279    43.234535     1.920113
Si   -40.761928    43.234535     1.920113
Si   -38.410279    39.908802     0.000000
Si   -38.410279    36.583068     1.920113
Si   -35.274747    38.800224     1.920113
Si   -37.626396    38.800224     1.920113
Si   -35.274747    35.474490     0.000000
Si   -35.274747    32.148757     1.920113
Si   -32.139216    34.365912     1.920113
Si   -34.490864    34.365912     1.920113
Si   -32.139216    31.040179     0.000000
Si   -32.139216    27.714446     1.920113
Si   -29.003684    29.931601     1.920113
Si   -31.355333    29.931601     1.920113
Si   -29.003684    26.605868     0.000000
Si   -29.003684    23.280134     1.920113
Si   -25.868153    25.497290     1.920113
Si   -28.219801    25.497290     1.920113
Si   -25.868153    22.171556     0.000000
Si   -25.868153    18.845823     1.920113
Si   -22.732621    21.062979     1.920113
Si   -25.084270    21.062979     1.920113
Si   -22.732621    17.737245     0.000000
Si   -22.732621    14.411512     1.920113
Si   -19.597089    16.628667     1.920113
Si   -21.948738    16.628667     1.920113
Si   -19.597089    13.302934     0.000000
Si   -19.597089     9.977200     1.920113
Si   -16.461558    12.194356     1.920113
Si   -18.813207    12.194356     1.920113
Si   -16.461558     8.868623     0.000000
Si   -16.461558     5.542889     1.920113
Si   -13.326026     7.760045     1.920113
Si   -15.677675     7.760045     1.920113
Si   -13.326026     4.434311     0.000000
Si   -13.326026     1.108578     1.920113
Si   -10.190495     3.325733     1.920113
Si   -12.542143     3.325733     1.920113
Si   -10.190495     0.000000     0.000000
Si   -53.304054    84.251914     0.000000
Si   -54.087937    82.034759     0.000000
Si   -53.304054    77.600447     0.000000
Si   -50.168522    79.817603     0.000000
Si   -53.304054    80.926181     1.920113
Si   -50.952405    77.600447     0.000000
Si   -50.168522    73.166136     0.000000
Si   -47.032991    75.383292     0.000000
Si   -50.168522    76.491870     1.920113
Si   -47.816874    73.166136     0.000000
Si   -47.032991    68.731825     0.000000
Si   -43.897459    70.948981     0.000000
Si   -47.032991    72.057558     1.920113
Si   -44.681342    68.731825     0.000000
Si   -43.897459    64.297514     0.000000
Si   -40.761928    66.514669     0.000000
Si   -43.897459    67.623247     1.920113
Si   -41.545811    64.297514     0.000000
Si   -40.761928    59.863202     0.000000
Si   -37.626396    62.080358     0.000000
Si   -40.761928    63.188936     1.920113
Si   -38.410279    59.863202     0.000000
Si   -37.626396    55.428891     0.000000
Si   -34.490864    57.646047     0.000000
Si   -37.626396    58.754624     1.920113
Si   -35.274747    55.428891     0.000000
Si   -34.490864    50.994580     0.000000
Si   -31.355333    53.211735     0.000000
Si   -34.490864    54.320313     1.920113
Si   -32.139216    50.994580     0.000000
Si   -31.355333    46.560268     0.000000
Si   -28.219801    48.777424     0.000000
Si   -31.355333    49.886002     1.920113
Si   -29.003684    46.560268     0.000000
Si   -28.219801    42.125957     0.000000
Si   -25.084270    44.343113     0.000000
Si   -28.219801    45.451691     1.920113
Si   -25.868153    42.125957     0.000000
Si   -25.084270    37.691646     0.000000
Si   -21.948738    39.908802     0.000000
Si   -25.084270    41.017379     1.920113
Si   -22.732621    37.691646     0.000000
Si   -21.948738    33.257335     0.000000
Si   -18.813207    35.474490     0.000000
Si   -21.948738    36.583068     1.920113
Si   -19.597089    33.257335     0.000000
Si   -18.813207    28.823023     0.000000
Si   -15.677675    31.040179     0.000000
Si   -18.813207    32.148757     1.920113
Si   -16.461558    28.823023     0.000000
Si   -15.677675    24.388712     0.000000
Si   -12.542143    26.605868     0.000000
Si   -15.677675    27.714446     1.920113
Si   -13.326026    24.388712     0.000000
Si   -12.542143    19.954401     0.000000
Si    -9.406612    22.171556     0.000000
Si   -12.542143    23.280134     1.920113
Si   -10.190495    19.954401     0.000000
Si    -9.406612    15.520089     0.000000
Si    -6.271080    17.737245     0.000000
Si    -9.406612    18.845823     1.920113
Si    -7.054963    15.520089     0.000000
Si    -6.271080    11.085778     0.000000
Si    -3.135549    13.302934     0.000000
Si    -6.271080    14.411512     1.920113
Si    -3.919432    11.085778     0.000000
Si    -3.135549     6.651467     0.000000
Si    -0.000017     8.868623     0.000000
Si    -3.135549     9.977200     1.920113
Si    -0.783900     6.651467     0.000000
Si    -0.000017     2.217156     0.000000
Si    -0.000017     5.542889     1.920113
Si   -54.087937    78.709025     1.920113
Si   -54.087937    75.383292     0.000000
Si   -54.087937    72.057558     1.920113
Si   -50.952405    74.274714     1.920113
Si   -53.304054    74.274714     1.920113
Si   -50.952405    70.948981     0.000000
Si   -50.952405    67.623247     1.920113
Si   -47.816874    69.840403     1.920113
Si   -50.168522    69.840403     1.920113
Si   -47.816874    66.514669     0.000000
Si   -47.816874    63.188936     1.920113
Si   -44.681342    65.406091     1.920113
Si   -47.032991    65.406091     1.920113
Si   -44.681342    62.080358     0.000000
Si   -44.681342    58.754624     1.920113
Si   -41.545811    60.971780     1.920113
Si   -43.897459    60.971780     1.920113
Si   -41.545811    57.646047     0.000000
Si   -41.545811    54.320313     1.920113
Si   -38.410279    56.537469     1.920113
Si   -40.761928    56.537469     1.920113
Si   -38.410279    53.211735     0.000000
Si   -38.410279    49.886002     1.920113
Si   -35.274747    52.103158     1.920113
Si   -37.626396    52.103158     1.920113
Si   -35.274747    48.777424     0.000000
Si   -35.274747    45.451691     1.920113
Si   -32.139216    47.668846     1.920113
Si   -34.490864    47.668846     1.920113
Si   -32.139216    44.343113     0.000000
Si   -32.139216    41.017379     1.920113
Si   -29.003684    43.234535     1.920113
Si   -31.355333    43.234535     1.920113
Si   -29.003684    39.908802     0.000000
Si   -29.003684    36.583068     1.920113
Si   -25.868153    38.800224     1.920113
Si   -28.219801    38.800224     1.920113
Si   -25.868153    35.474490     0.000000
Si   -25.868153    32.148757     1.920113
Si   -22.732621    34.365912     1.920113
Si   -25.084270    34.365912     1.920113
Si   -22.732621    31.040179     0.000000
Si   -22.732621    27.714446     1.920113
Si   -19.597089    29.931601     1.920113
Si   -21.948738    29.931601     1.920113
Si   -19.597089    26.605868     0.000000
Si   -19.597089    23.280134     1.920113
Si   -16.461558    25.497290     1.920113
Si   -18.813207    25.497290     1.920113
Si   -16.461558    22.171556     0.000000
Si   -16.461558    18.845823     1.920113
Si   -13.326026    21.062979     1.920113
Si   -15.677675    21.062979     1.920113
Si   -13.326026    17.737245     0.000000
Si   -13.326026    14.411512     1.920113
Si   -10.190495    16.628667     1.920113
Si   -12.542143    16.628667     1.920113
Si   -10.190495    13.302934     0.000000
Si   -10.190495     9.977200     1.920113
Si    -7.054963    12.194356     1.920113
Si    -9.406612    12.194356     1.920113
Si    -7.054963     8.868623     0.000000
Si    -7.054963     5.542889     1.920113
Si    -3.919432     7.760045     1.920113
Si    -6.271080     7.760045     1.920113
Si    -3.919432     4.434311     0.000000
Si    -3.919432     1.108578     1.920113
Si    -0.783900     3.325733     1.920113
Si    -3.135549     3.325733     1.920113
Si    -0.783900     0.000000     0.000000
Si   -53.304054    97.554848     0.000000
Si   -54.087937    95.337693     0.000000
Si   -53.304054    90.903381     0.000000
Si   -50.168522    93.120537     0.000000
Si   -53.304054    94.229115     1.920113
Si   -50.952405    90.903381     0.000000
Si   -50.168522    86.469070     0.000000
Si   -47.032991    88.686226     0.000000
Si   -50.168522    89.794803     1.920113
Si   -47.816874    86.469070     0.000000
Si   -47.032991    82.034759     0.000000
Si   -43.897459    84.251914     0.000000
Si   -47.032991    85.360492     1.920113
Si   -44.681342    82.034759     0.000000
Si   -43.897459    77.600447     0.000000
Si   -40.761928    79.817603     0.000000
Si   -43.897459    80.926181     1.920113
Si   -41.545811    77.600447     0.000000
Si   -40.761928    73.166136     0.000000
Si   -37.626396    75.383292     0.000000
Si   -40.761928    76.491870     1.920113
Si   -38.410279    73.166136     0.000000
Si   -37.626396    68.731825     0.000000
Si   -34.490864    70.948981     0.000000
Si   -37.626396    72.057558     1.920113
Si   -35.274747    68.731825     0.000000
Si   -34.490864    64.297514     0.000000
Si   -31.355333    66.514669     0.000000
Si   -34.490864    67.623247     1.920113
Si   -32.139216    64.297514     0.000000
Si   -31.355333    59.863202     0.000000
Si   -28.219801    62.080358     0.000000
Si   -31.355333    63.188936     1.920113
Si   -29.003684    59.863202     0.000000
Si   -28.219801    55.428891     0.000000
Si   -25.084270    57.646047     0.000000
Si   -28.219801    58.754624     1.920113
Si   -25.868153    55.428891     0.000000
Si   -25.084270    50.994580     0.000000
Si   -21.948738    53.211735     0.000000
Si   -25.084270    54.320313     1.920113
Si   -22.732621    50.994580     0.000000
Si   -21.948738    46.560268     0.000000
Si   -18.813207    48.777424     0.000000
Si   -21.948738    49.886002     1.920113
Si   -19.597089    46.560268     0.000000
Si   -18.813207    42.125957     0.000000
Si   -15.677675    44.343113     0.000000
Si   -18.813207    45.451691     1.920113
Si   -16.461558    42.125957     0.000000
Si   -15.677675    37.691646     0.000000
Si   -12.542143    39.908802     0.000000
Si   -15.677675    41.017379     1.920113
Si   -13.326026    37.691646     0.000000
Si   -12.542143    33.257335     0.000000
Si    -9.406612    35.474490     0.000000
Si   -12.542143    36.583068     1.920113
Si   -10.190495    33.257335     0.000000
Si    -9.406612    28.823023     0.000000
Si    -6.271080    31.040179     0.000000
Si    -9.406612    32.148757     1.920113
Si    -7.054963    28.823023     0.000000
Si    -6.271080    24.388712     0.000000
Si    -3.135549    26.605868     0.000000
Si    -6.271080    27.714446     1.920113
Si    -3.919432    24.388712     0.000000
Si    -3.135549    19.954401     0.000000
Si    -0.000017    22.171556     0.000000
Si    -3.135549    23.280134     1.920113
Si    -0.783900    19.954401     0.000000
Si    -0.000017    15.520089     0.000000
Si    -0.000017    18.845823     1.920113
Si   -54.087937    92.011959     1.920113
Si   -54.087937    88.686226     0.000000
Si   -54.087937    85.360492     1.920113
Si   -50.952405    87.577648     1.920113
Si   -53.304054    87.577648     1.920113
Si   -50.952405    84.251914     0.000000
Si   -50.952405    80.926181     1.920113
Si   -47.816874    83.143337     1.920113
Si   -50.168522    83.143337     1.920113
Si   -47.816874    79.817603     0.000000
Si   -47.816874    76.491870     1.920113
Si   -44.681342    78.709025     1.920113
Si   -47.032991    78.709025     1.920113
Si   -44.681342    75.383292     0.000000
Si   -44.681342    72.057558     1.920113
Si   -41.545811    74.274714     1.920113
Si   -43.897459    74.274714     1.920113
Si   -41.545811    70.948981     0.000000
Si   -41.545811    67.623247     1.920113
Si   -38.410279    69.840403     1.920113
Si   -40.761928    69.840403     1.920113
Si   -38.410279    66.514669     0.000000
Si   -38.410279    63.188936     1.920113
Si   -35.274747    65.406091     1.920113
Si   -37.626396    65.406091     1.920113
Si   -35.274747    62.080358     0.000000
Si   -35.274747    58.754624     1.920113
Si   -32.139216    60.971780     1.920113
Si   -34.490864    60.971780     1.920113
Si   -32.139216    57.646047     0.000000
Si   -32.139216    54.320313     1.920113
Si   -29.003684    56.537469     1.920113
Si   -31.355333    56.537469     1.920113
Si   -29.003684    53.211735     0.000000
Si   -29.003684    49.886002     1.920113
Si   -25.868153    52.103158     1.920113
Si   -28.219801    52.103158     1.920113
Si   -25.868153    48.777424     0.000000
Si   -25.868153    45.451691     1.920113
Si   -22.732621    47.668846     1.920113
Si   -25.084270    47.668846     1.920113
Si   -22.732621    44.343113     0.000000
Si   -22.732621    41.017379     1.920113
Si   -19.597089    43.234535     1.920113
Si   -21.948738    43.234535     1.920113
Si   -19.597089    39.908802     0.000000
Si   -19.597089    36.583068     1.920113
Si   -16.461558    38.800224     1.920113
Si   -18.813207    38.800224     1.920113
Si   -16.461558    35.474490     0.000000
Si   -16.461558    32.148757     1.920113
Si   -13.326026    34.365912     1.920113
Si   -15.677675    34.365912     1.920113
Si   -13.326026    31.040179     0.000000
Si   -13.326026    27.714446     1.920113
Si   -10.190495    29.931601     1.920113
Si   -12.542143    29.931601     1.920113
Si   -10.190495    26.605868     0.000000
Si   -10.190495    23.280134     1.920113
Si    -7.054963    25.497290     1.920113
Si    -9.406612    25.497290     1.920113
Si    -7.054963    22.171556     0.000000
Si    -7.054963    18.845823     1.920113
Si    -3.919432    21.062979     1.920113
Si    -6.271080    21.062979     1.920113
Si    -3.919432    17.737245     0.000000
Si    -3.919432    14.411512     1.920113
Si    -0.783900    16.628667     1.920113
Si    -3.135549    16.628667     1.920113
Si    -0.783900    13.302934     0.000000
Si    -0.783900     9.977200     1.920113
Si    -0.000017    12.194356     1.920113
Si   -53.304054   110.857782     0.000000
Si   -54.087937   108.640626     0.000000
Si   -53.304054   104.206315     0.000000
Si   -50.168522   106.423471     0.000000
Si   -53.304054   107.532049     1.920113
Si   -50.952405   104.206315     0.000000
Si   -50.168522    99.772004     0.000000
Si   -47.032991   101.989159     0.000000
Si   -50.168522   103.097737     1.920113
Si   -47.816874    99.772004     0.000000
Si   -47.032991    95.337693     0.000000
Si   -43.897459    97.554848     0.000000
Si   -47.032991    98.663426     1.920113
Si   -44.681342    95.337693     0.000000
Si   -43.897459    90.903381     0.000000
Si   -40.761928    93.120537     0.000000
Si   -43.897459    94.229115     1.920113
Si   -41.545811    90.903381     0.000000
Si   -40.761928    86.469070     0.000000
Si   -37.626396    88.686226     0.000000
Si   -40.761928    89.794803     1.920113
Si   -38.410279    86.469070     0.000000
Si   -37.626396    82.034759     0.000000
Si   -34.490864    84.251914     0.000000
Si   -37.626396    85.360492     1.920113
Si   -35.274747    82.034759     0.000000
Si   -34.490864    77.600447     0.000000
Si   -31.355333    79.817603     0.000000
Si   -34.490864    80.926181     1.920113
Si   -32.139216    77.600447     0.000000
Si   -31.355333    73.166136     0.000000
Si   -28.219801    75.383292     0.000000
Si   -31.355333    76.491870     1.920113
Si   -29.003684    73.166136     0.000000
Si   -28.219801    68.731825     0.000000
Si   -25.084270    70.948981     0.000000
Si   -28.219801    72.057558     1.920113
Si   -25.868153    68.731825     0.000000
Si   -25.084270    64.297514     0.000000
Si   -21.948738    66.514669     0.000000
Si   -25.084270    67.623247     1.920113
Si   -22.732621    64.297514     0.000000
Si   -21.948738    59.863202     0.000000
Si   -18.813207    62.080358     0.000000
Si   -21.948738    63.188936     1.920113
Si   -19.597089    59.863202     0.000000
Si   -18.813207    55.428891     0.000000
Si   -15.677675    57.646047     0.000000
Si   -18.813207    58.754624     1.920113
Si   -16.461558    55.428891     0.000000
Si   -15.677675    50.994580     0.000000
Si   -12.542143    53.211735     0.000000
Si   -15.677675    54.320313     1.920113
Si   -13.326026    50.994580     0.000000
Si   -12.542143    46.560268     0.000000
Si    -9.406612    48.777424     0.000000
Si   -12.542143    49.886002     1.920113
Si   -10.190495    46.560268     0.000000
Si    -9.406612    42.125957     0.000000
Si    -6.271080    44.343113     0.000000
Si    -9.406612    45.451691     1.920113
Si    -7.054963    42.125957     0.000000
Si    -6.271080    37.691646     0.000000
Si    -3.135549    39.908802     0.000000
Si    -6.271080    41.017379     1.920113
Si    -3.919432    37.691646     0.000000
Si    -3.135549    33.257335     0.000000
Si    -0.000017    35.474490     0.000000
Si    -3.135549    36.583068     1.920113
Si    -0.783900    33.257335     0.000000
Si    -0.000017    28.823023     0.000000
Si    -0.000017    32.148757     1.920113
Si   -54.087937   105.314893     1.920113
Si   -54.087937   101.989159     0.000000
Si   -54.087937    98.663426     1.920113
Si   -50.952405   100.880582     1.920113
Si   -53.304054   100.880582     1.920113
Si   -50.952405    97.554848     0.000000
Si   -50.952405    94.229115     1.920113
Si   -47.816874    96.446270     1.920113
Si   -50.168522    96.446270     1.920113
Si   -47.816874    93.120537     0.000000
Si   -47.816874    89.794803     1.920113
Si   -44.681342    92.011959     1.920113
Si   -47.032991    92.011959     1.920113
Si   -44.681342    88.686226     0.000000
Si   -44.681342    85.360492     1.920113
Si   -41.545811    87.577648     1.920113
Si   -43.897459    87.577648     1.920113
Si   -41.545811    84.251914     0.000000
Si   -41.545811    80.926181     1.920113
Si   -38.410279    83.143337     1.920113
Si   -40.761928    83.143337     1.920113
Si   -38.410279    79.817603     0.000000
Si   -38.410279    76.491870     1.920113
Si   -35.274747    78.709025     1.920113
Si   -37.626396    78.709025     1.920113
Si   -35.274747    75.383292     0.000000
Si   -35.274747    72.057558     1.920113
Si   -32.139216    74.274714     1.920113
Si   -34.490864    74.274714     1.920113
Si   -32.139216    70.948981     0.000000
Si   -32.139216    67.623247     1.920113
Si   -29.003684    69.840403     1.920113
Si   -31.355333    69.840403     1.920113
Si   -29.003684    66.514669     0.000000
Si   -29.003684    63.188936     1.920113
Si   -25.868153    65.406091     1.920113
Si   -28.219801    65.406091     1.920113
Si   -25.868153    62.080358     0.000000
Si   -25.868153    58.754624     1.920113
Si   -22.732621    60.971780     1.920113
Si   -25.084270    60.971780     1.920113
Si   -22.732621    57.646047     0.000000
Si   -22.732621    54.320313     1.920113
Si   -19.597089    56.537469     1.920113
Si   -21.948738    56.537469     1.920113
Si   -19.597089    53.211735     0.000000
Si   -19.597089    49.886002     1.920113
Si   -16.461558    52.103158     1.920113
Si   -18.813207    52.103158     1.920113
Si   -16.461558    48.777424     0.000000
Si   -16.461558    45.451691     1.920113
Si   -13.326026    47.668846     1.920113
Si   -15.677675    47.668846     1.920113
Si   -13.326026    44.343113     0.000000
Si   -13.326026    41.017379     1.920113
Si   -10.190495    43.234535     1.920113
Si   -12.542143    43.234535     1.920113
Si   -10.190495    39.908802     0.000000
Si   -10.190495    36.583068     1.920113
Si    -7.054963    38.800224     1.920113
Si    -9.406612    38.800224     1.920113
Si    -7.054963    35.474490     0.000000
Si    -7.054963    32.148757     1.920113
Si    -3.919432    34.365912     1.920113
Si    -6.271080    34.365912     1.920113
Si    -3.919432    31.040179     0.000000
Si    -3.919432    27.714446     1.920113
Si    -0.783900    29.931601     1.920113
Si    -3.135549    29.931601     1.920113
Si    -0.783900    26.605868     0.000000
Si    -0.783900    23.280134     1.920113
Si    -0.000017    25.497290     1.920113
Si   -53.304054   124.160716     0.000000
Si   -54.087937   121.943560     0.000000
Si   -53.304054   117.509249     0.000000
Si   -50.168522   119.726405     0.000000
Si   -53.304054   120.834982     1.920113
Si   -50.952405   117.509249     0.000000
Si   -50.168522   113.074938     0.000000
Si   -47.032991   115.292093     0.000000
Si   -50.168522   116.400671     1.920113
Si   -47.816874   113.074938     0.000000
Si   -47.032991   108.640626     0.000000
Si   -43.897459   110.857782     0.000000
Si   -47.032991   111.966360     1.920113
Si   -44.681342   108.640626     0.000000
Si   -43.897459   104.206315     0.000000
Si   -40.761928   106.423471     0.000000
Si   -43.897459   107.532049     1.920113
Si   -41.545811   104.206315     0.000000
Si   -40.761928    99.772004     0.000000
Si   -37.626396   101.989159     0.000000
Si   -40.761928   103.097737     1.920113
Si   -38.410279    99.772004     0.000000
Si   -37.626396    95.337693     0.000000
Si   -34.490864    97.554848     0.000000
Si   -37.626396    98.663426     1.920113
Si   -35.274747    95.337693     0.000000
Si   -34.490864    90.903381     0.000000
Si   -31.355333    93.120537     0.000000
Si   -34.490864    94.229115     1.920113
Si   -32.139216    90.903381     0.000000
Si   -31.355333    86.469070     0.000000
Si   -28.219801    88.686226     0.000000
Si   -31.355333    89.794803     1.920113
Si   -29.003684    86.469070     0.000000
Si   -28.219801    82.034759     0.000000
Si   -25.084270    84.251914     0.000000
Si   -28.219801    85.360492     1.920113
Si   -25.868153    82.034759     0.000000
Si   -25.084270    77.600447     0.000000
Si   -21.948738    79.817603     0.000000
Si   -25.084270    80.926181     1.920113
Si   -22.732621    77.600447     0.000000
Si   -21.948738    73.166136     0.000000
Si   -18.813207    75.383292     0.000000
Si   -21.948738    76.491870     1.920113
Si   -19.597089    73.166136     0.000000
Si   -18.813207    68.731825     0.000000
Si   -15.677675    70.948981     0.000000
Si   -18.813207    72.057558     1.920113
Si   -16.461558    68.731825     0.000000
Si   -15.677675    64.297514     0.000000
Si   -12.542143    66.514669     0.000000
Si   -15.677675    67.623247     1.920113
Si   -13.326026    64.297514     0.000000
Si   -12.542143    59.863202     0.000000
Si    -9.406612    62.080358     0.000000
Si   -12.542143    63.188936     1.920113
Si   -10.190495    59.863202     0.000000
Si    -9.406612    55.428891     0.000000
Si    -6.271080    57.646047     0.000000
Si    -9.406612    58.754624     1.920113
Si    -7.054963    55.428891     0.000000
Si    -6.271080    50.994580     0.000000
Si    -3.135549    53.211735     0.000000
Si    -6.271080    54.320313     1.920113
Si    -3.919432    50.994580     0.000000
Si    -3.135549    46.560268     0.000000
Si    -0.000017    48.777424     0.000000
Si    -3.135549    49.886002     1.920113
Si    -0.783900    46.560268     0.000000
Si    -0.000017    42.125957     0.000000
Si    -0.000017    45.451691     1.920113
Si   -54.087937   118.617827     1.920113
Si   -54.087937   115.292093     0.000000
Si   -54.087937   111.966360     1.920113
Si   -50.952405   114.183515     1.920113
Si   -53.304054   114.183515     1.920113
Si   -50.952405   110.857782     0.000000
Si   -50.952405   107.532049     1.920113
Si   -47.816874   109.749204     1.920113
Si   -50.168522   109.749204     1.920113
Si   -47.816874   106.423471     0.000000
Si   -47.816874   103.097737     1.920113
Si   -44.681342   105.314893     1.920113
Si   -47.032991   105.314893     1.920113
Si   -44.681342   101.989159     0.000000
Si   -44.681342    98.663426     1.920113
Si   -41.545811   100.880582     1.920113
Si   -43.897459   100.880582     1.920113
Si   -41.545811    97.554848     0.000000
Si   -41.545811    94.229115     1.920113
Si   -38.410279    96.446270     1.920113
Si   -40.761928    96.446270     1.920113
Si   -38.410279    93.120537     0.000000
Si   -38.410279    89.794803     1.920113
Si   -35.274747    92.011959     1.920113
Si   -37.626396    92.011959     1.920113
Si   -35.274747    88.686226     0.000000
Si   -35.274747    85.360492     1.920113
Si   -32.139216    87.577648     1.920113
Si   -34.490864    87.577648     1.920113
Si   -32.139216    84.251914     0.000000
Si   -32.139216    80.926181     1.920113
Si   -29.003684    83.143337     1.920113
Si   -31.355333    83.143337     1.920113
Si   -29.003684    79.817603     0.000000
Si   -29.003684    76.491870     1.920113
Si   -25.868153    78.709025     1.920113
Si   -28.219801    78.709025     1.920113
Si   -25.868153    75.383292     0.000000
Si   -25.868153    72.057558     1.920113
Si   -22.732621    74.274714     1.920113
Si   -25.084270    74.274714     1.920113
Si   -22.732621    70.948981     0.000000
Si   -22.732621    67.623247     1.920113
Si   -19.597089    69.840403     1.920113
Si   -21.948738    69.840403     1.920113
Si   -19.597089    66.514669     0.000000
Si   -19.597089    63.188936     1.920113
Si   -16.461558    65.406091     1.920113
Si   -18.813207    65.406091     1.920113
Si   -16.461558    62.080358     0.000000
Si   -16.461558    58.754624     1.920113
Si   -13.326026    60.971780     1.920113
Si   -15.677675    60.971780     1.920113
Si   -13.326026    57.646047     0.000000
Si   -13.326026    54.320313     1.920113
Si   -10.190495    56.537469     1.920113
Si   -12.542143    56.537469     1.920113
Si   -10.190495    53.211735     0.000000
Si   -10.190495    49.886002     1.920113
Si    -7.054963    52.103158     1.920113
Si    -9.406612    52.103158     1.920113
Si    -7.054963    48.777424     0.000000
Si    -7.054963    45.451691     1.920113
Si    -3.919432    47.668846     1.920113
Si    -6.271080    47.668846     1.920113
Si    -3.919432    44.343113     0.000000
Si    -3.919432    41.017379     1.920113
Si    -0.783900    43.234535     1.920113
Si    -3.135549    43.234535     1.920113
Si    -0.783900    39.908802     0.000000
Si    -0.783900    36.583068     1.920113
Si    -0.000017    38.800224     1.920113
Si   -53.304054   137.463650     0.000000
Si   -54.087937   135.246494     0.000000
Si   -53.304054   130.812183     0.000000
Si   -50.168522   133.029338     0.000000
Si   -53.304054   134.137916     1.920113
Si   -50.952405   130.812183     0.000000
Si   -50.168522   126.377872     0.000000
Si   -47.032991   128.595027     0.000000
Si   -50.168522   129.703605     1.920113
Si   -47.816874   126.377872     0.000000
Si   -47.032991   121.943560     0.000000
Si   -43.897459   124.160716     0.000000
Si   -47.032991   125.269294     1.920113
Si   -44.681342   121.943560     0.000000
Si   -43.897459   117.509249     0.000000
Si   -40.761928   119.726405     0.000000
Si   -43.897459   120.834982     1.920113
Si   -41.545811   117.509249     0.000000
Si   -40.761928   113.074938     0.000000
Si   -37.626396   115.292093     0.000000
Si   -40.761928   116.400671     1.920113
Si   -38.410279   113.074938     0.000000
Si   -37.626396   108.640626     0.000000
Si   -34.490864   110.857782     0.000000
Si   -37.626396   111.966360     1.920113
Si   -35.274747   108.640626     0.000000
Si   -34.490864   104.206315     0.000000
Si   -31.355333   106.423471     0.000000
Si   -34.490864   107.532049     1.920113
Si   -32.139216   104.206315     0.000000
Si   -31.355333    99.772004     0.000000
Si   -28.219801   101.989159     0.000000
Si   -31.355333   103.097737     1.920113
Si   -29.003684    99.772004     0.000000
Si   -28.219801    95.337693     0.000000
Si   -25.084270    97.554848     0.000000
Si   -28.219801    98.663426     1.920113
Si   -25.868153    95.337693     0.000000
Si   -25.084270    90.903381     0.000000
Si   -21.948738    93.120537     0.000000
Si   -25.084270    94.229115     1.920113
Si   -22.732621    90.903381     0.000000
Si   -21.948738    86.469070     0.000000
Si   -18.813207    88.686226     0.000000
Si   -21.948738    89.794803     1.920113
Si   -19.597089    86.469070     0.000000
Si   -18.813207    82.034759     0.000000
Si   -15.677675    84.251914     0.000000
Si   -18.813207    85.360492     1.920113
Si   -16.461558    82.034759     0.000000
Si   -15.677675    77.600447     0.000000
Si   -12.542143    79.817603     0.000000
Si   -15.677675    80.926181     1.920113
Si   -13.326026    77.600447     0.000000
Si   -12.542143    73.166136     0.000000
Si    -9.406612    75.383292     0.000000
Si   -12.542143    76.491870     1.920113
Si   -10.190495    73.166136     0.000000
Si    -9.406612    68.731825     0.000000
Si    -6.271080    70.948981     0.000000
Si    -9.406612    72.057558     1.920113
Si    -7.054963    68.731825     0.000000
Si    -6.271080    64.297514     0.000000
Si    -3.135549    66.514669     0.000000
Si    -6.271080    67.623247     1.920113
Si    -3.919432    64.297514     0.000000
Si    -3.135549    59.863202     0.000000
Si    -0.000017    62.080358     0.000000
Si    -3.135549    63.188936     1.920113
Si    -0.783900    59.863202     0.000000
Si    -0.000017    55.428891     0.000000
Si    -0.000017    58.754624     1.920113
Si   -54.087937   131.920761     1.920113
Si   -54.087937   128.595027     0.000000
Si   -54.087937   125.269294     1.920113
Si   -50.952405   127.486449     1.920113
Si   -53.304054   127.486449     1.920113
Si   -50.952405   124.160716     0.000000
Si   -50.952405   120.834982     1.920113
Si   -47.816874   123.052138     1.920113
Si   -50.168522   123.052138     1.920113
Si   -47.816874   119.726405     0.000000
Si   -47.816874   116.400671     1.920113
Si   -44.681342   118.617827     1.920113
Si   -47.032991   118.617827     1.920113
Si   -44.681342   115.292093     0.000000
Si   -44.681342   111.966360     1.920113
Si   -41.545811   114.183515     1.920113
Si   -43.897459   114.183515     1.920113
Si   -41.545811   110.857782     0.000000
Si   -41.545811   107.532049     1.920113
Si   -38.410279   109.749204     1.920113
Si   -40.761928   109.749204     1.920113
Si   -38.410279   106.423471     0.000000
Si   -38.410279   103.097737     1.920113
Si   -35.274747   105.314893     1.920113
Si   -37.626396   105.314893     1.920113
Si   -35.274747   101.989159     0.000000
Si   -35.274747    98.663426     1.920113
Si   -32.139216   100.880582     1.920113
Si   -34.490864   100.880582     1.920113
Si   -32.139216    97.554848     0.000000
Si   -32.139216    94.229115     1.920113
Si   -29.003684    96.446270     1.920113
Si   -31.355333    96.446270     1.920113
Si   -29.003684    93.120537     0.000000
Si   -29.003684    89.794803     1.920113
Si   -25.868153    92.011959     1.920113
Si   -28.219801    92.011959     1.920113
Si   -25.868153    88.686226     0.000000
Si   -25.868153    85.360492     1.920113
Si   -22.732621    87.577648     1.920113
Si   -25.084270    87.577648     1.920113
Si   -22.732621    84.251914     0.000000
Si   -22.732621    80.926181     1.920113
Si   -19.597089    83.143337     1.920113
Si   -21.948738    83.143337     1.920113
Si   -19.597089    79.817603     0.000000
Si   -19.597089    76.491870     1.920113
Si   -16.461558    78.709025     1.920113
Si   -18.813207    78.709025     1.920113
Si   -16.461558    75.383292     0.000000
Si   -16.461558    72.057558     1.920113
Si   -13.326026    74.274714     1.920113
Si   -15.677675    74.274714     1.920113
Si   -13.326026    70.948981     0.000000
Si   -13.326026    67.623247     1.920113
Si   -10.190495    69.840403     1.920113
Si   -12.542143    69.840403     1.920113
Si   -10.190495    66.514669     0.000000
Si   -10.190495    63.188936     1.920113
Si    -7.054963    65.406091     1.920113
Si    -9.406612    65.406091     1.920113
Si    -7.054963    62.080358     0.000000
Si    -7.054963    58.754624     1.920113
Si    -3.919432    60.971780     1.920113
Si    -6.271080    60.971780     1.920113
Si    -3.919432    57.646047     0.000000
Si    -3.919432    54.320313     1.920113
Si    -0.783900    56.537469     1.920113
Si    -3.135549    56.537469     1.920113
Si    -0.783900    53.211735     0.000000
Si    -0.783900    49.886002     1.920113
Si    -0.000017    52.103158     1.920113
Si   -53.304054   150.766584     0.000000
Si   -54.087937   148.549428     0.000000
Si   -53.304054   144.115117     0.000000
Si   -50.168522   146.332272     0.000000
Si   -53.304054   147.440850     1.920113
Si   -50.952405   144.115117     0.000000
Si   -50.168522   139.680805     0.000000
Si   -47.032991   141.897961     0.000000
Si   -50.168522   143.006539     1.920113
Si   -47.816874   139.680805     0.000000
Si   -47.032991   135.246494     0.000000
Si   -43.897459   137.463650     0.000000
Si   -47.032991   138.572228     1.920113
Si   -44.681342   135.246494     0.000000
Si   -43.897459   130.812183     0.000000
Si   -40.761928   133.029338     0.000000
Si   -43.897459   134.137916     1.920113
Si   -41.545811   130.812183     0.000000
Si   -40.761928   126.377872     0.000000
Si   -37.626396   128.595027     0.000000
Si   -40.761928   129.703605     1.920113
Si   -38.410279   126.377872     0.000000
Si   -37.626396   121.943560     0.000000
Si   -34.490864   124.160716     0.000000
Si   -37.626396   125.269294     1.920113
Si   -35.274747   121.943560     0.000000
Si   -34.490864   117.509249     0.000000
Si   -31.355333   119.726405     0.000000
Si   -34.490864   120.834982     1.920113
Si   -32.139216   117.509249     0.000000
Si   -31.355333   113.074938     0.000000
Si   -28.219801   115.292093     0.000000
Si   -31.355333   116.400671     1.920113
Si   -29.003684   113.074938     0.000000
Si   -28.219801   108.640626     0.000000
Si   -25.084270   110.857782     0.000000
Si   -28.219801   111.966360     1.920113
Si   -25.868153   108.640626     0.000000
Si   -25.084270   104.206315     0.000000
Si   -21.948738   106.423471     0.000000
Si   -25.084270   107.532049     1.920113
Si   -22.732621   104.206315     0.000000
Si   -21.948738    99.772004     0.000000
Si   -18.813207   101.989159     0.000000
Si   -21.948738   103.097737     1.920113
Si   -19.597089    99.772004     0.000000
Si   -18.813207    95.337693     0.000000
Si   -15.677675    97.554848     0.000000
Si   -18.813207    98.663426     1.920113
Si   -16.461558    95.337693     0.000000
Si   -15.677675    90.903381     0.000000
Si   -12.542143    93.120537     0.000000
Si   -15.677675    94.229115     1.920113
Si   -13.326026    90.903381     0.000000
Si   -12.542143    86.469070     0.000000
Si    -9.406612    88.686226     0.000000
Si   -12.542143    89.794803     1.920113
Si   -10.190495    86.469070     0.000000
Si    -9.406612    82.034759     0.000000
Si    -6.271080    84.251914     0.000000
Si    -9.406612    85.360492     1.920113
Si    -7.054963    82.034759     0.000000
Si    -6.271080    77.600447     0.000000
Si    -3.135549    79.817603     0.000000
Si    -6.271080    80.926181     1.920113
Si    -3.919432    77.600447     0.000000
Si    -3.135549    73.166136     0.000000
Si    -0.000017    75.383292     0.000000
Si    -3.135549    76.491870     1.920113
Si    -0.783900    73.166136     0.000000
Si    -0.000017    68.731825     0.000000
Si    -0.000017    72.057558     1.920113
Si   -54.087937   145.223694     1.920113
Si   -54.087937   141.897961     0.000000
Si   -54.087937   138.572228     1.920113
Si   -50.952405   140.789383     1.920113
Si   -53.304054   140.789383     1.920113
Si   -50.952405   137.463650     0.000000
Si   -50.952405   134.137916     1.920113
Si   -47.816874   136.355072     1.920113
Si   -50.168522   136.355072     1.920113
Si   -47.816874   133.029338     0.000000
Si   -47.816874   129.703605     1.920113
Si   -44.681342   131.920761     1.920113
Si   -47.032991   131.920761     1.920113
Si   -44.681342   128.595027     0.000000
Si   -44.681342   125.269294     1.920113
Si   -41.545811   127.486449     1.920113
Si   -43.897459   127.486449     1.920113
Si   -41.545811   124.160716     0.000000
Si   -41.545811   120.834982     1.920113
Si   -38.410279   123.052138     1.920113
Si   -40.761928   123.052138     1.920113
Si   -38.410279   119.726405     0.000000
Si   -38.410279   116.400671     1.920113
Si   -35.274747   118.617827     1.920113
Si   -37.626396   118.617827     1.920113
Si   -35.274747   115.292093     0.000000
Si   -35.274747   111.966360     1.920113
Si   -32.139216   114.183515     1.920113
Si   -34.490864   114.183515     1.920113
Si   -32.139216   110.857782     0.000000
Si   -32.139216   107.532049     1.920113
Si   -29.003684   109.749204     1.920113
Si   -31.355333   109.749204     1.920113
Si   -29.003684   106.423471     0.000000
Si   -29.003684   103.097737     1.920113
Si   -25.868153   105.314893     1.920113
Si   -28.219801   105.314893     1.920113
Si   -25.868153   101.989159     0.000000
Si   -25.868153    98.663426     1.920113
Si   -22.732621   100.880582     1.920113
Si   -25.084270   100.880582     1.920113
Si   -22.732621    97.554848     0.000000
Si   -22.732621    94.229115     1.920113
Si   -19.597089    96.446270     1.920113
Si   -21.948738    96.446270     1.920113
Si   -19.597089    93.120537     0.000000
Si   -19.597089    89.794803     1.920113
Si   -16.461558    92.011959     1.920113
Si   -18.813207    92.011959     1.920113
Si   -16.461558    88.686226     0.000000
Si   -16.461558    85.360492     1.920113
Si   -13.326026    87.577648     1.920113
Si   -15.677675    87.577648     1.920113
Si   -13.326026    84.251914     0.000000
Si   -13.326026    80.926181     1.920113
Si   -10.190495    83.143337     1.920113
Si   -12.542143    83.143337     1.920113
Si   -10.190495    79.817603     0.000000
Si   -10.190495    76.491870     1.920113
Si    -7.054963    78.709025     1.920113
Si    -9.406612    78.709025     1.920113
Si    -7.054963    75.383292     0.000000
Si    -7.054963    72.057558     1.920113
Si    -3.919432    74.274714     1.920113
Si    -6.271080    74.274714     1.920113
Si    -3.919432    70.948981     0.000000
Si    -3.919432    67.623247     1.920113
Si    -0.783900    69.840403     1.920113
Si    -3.135549    69.840403     1.920113
Si    -0.783900    66.514669     0.000000
Si    -0.783900    63.188936     1.920113
Si    -0.000017    65.406091     1.920113
Si   -53.304054   164.069517     0.000000
Si   -54.087937   161.852362     0.000000
Si   -53.304054   157.418050     0.000000
Si   -50.168522   159.635206     0.000000
Si   -53.304054   160.743784     1.920113
Si   -50.952405   157.418050     0.000000
Si   -50.168522   152.983739     0.000000
Si   -47.032991   155.200895     0.000000
Si   -50.168522   156.309473     1.920113
Si   -47.816874   152.983739     0.000000
Si   -47.032991   148.549428     0.000000
Si   -43.897459   150.766584     0.000000
Si   -47.032991   151.875161     1.920113
Si   -44.681342   148.549428     0.000000
Si   -43.897459   144.115117     0.000000
Si   -40.761928   146.332272     0.000000
Si   -43.897459   147.440850     1.920113
Si   -41.545811   144.115117     0.000000
Si   -40.761928   139.680805     0.000000
Si   -37.626396   141.897961     0.000000
Si   -40.761928   143.006539     1.920113
Si   -38.410279   139.680805     0.000000
Si   -37.626396   135.246494     0.000000
Si   -34.490864   137.463650     0.000000
Si   -37.626396   138.572228     1.920113
Si   -35.274747   135.246494     0.000000
Si   -34.490864   130.812183     0.000000
Si   -31.355333   133.029338     0.000000
Si   -34.490864   134.137916     1.920113
Si   -32.139216   130.812183     0.000000
Si   -31.355333   126.377872     0.000000
Si   -28.219801   128.595027     0.000000
Si   -31.355333   129.703605     1.920113
Si   -29.003684   126.377872     0.000000
Si   -28.219801   121.943560     0.000000
Si   -25.084270   124.160716     0.000000
Si   -28.219801   125.269294     1.920113
Si   -25.868153   121.943560     0.000000
Si   -25.084270   117.509249     0.000000
Si   -21.948738   119.726405     0.000000
Si   -25.084270   120.834982     1.920113
Si   -22.732621   117.509249     0.000000
Si   -21.948738   113.074938     0.000000
Si   -18.813207   115.292093     0.000000
Si   -21.948738   116.400671     1.920113
Si   -19.597089   113.074938     0.000000
Si   -18.813207   108.640626     0.000000
Si   -15.677675   110.857782     0.000000
Si   -18.813207   111.966360     1.920113
Si   -16.461558   108.640626     0.000000
Si   -15.677675   104.206315     0.000000
Si   -12.542143   106.423471     0.000000
Si   -15.677675   107.532049     1.920113
Si   -13.326026   104.206315     0.000000
Si   -12.542143    99.772004     0.000000
Si    -9.406612   101.989159     0.000000
Si   -12.542143   103.097737     1.920113
Si   -10.190495    99.772004     0.000000
Si    -9.406612    95.337693     0.000000
Si    -6.271080    97.554848     0.000000
Si    -9.406612    98.663426     1.920113
Si    -7.054963    95.337693     0.000000
Si    -6.271080    90.903381     0.000000
Si    -3.135549    93.120537     0.000000
Si    -6.271080    94.229115     1.920113
Si    -3.919432    90.903381     0.000000
Si    -3.135549    86.469070     0.000000
Si    -0.000017    88.686226     0.000000
Si    -3.135549    89.794803     1.920113
Si    -0.783900    86.469070     0.000000
Si    -0.000017    82.034759     0.000000
Si    -0.000017    85.360492     1.920113
Si   -54.087937   158.526628     1.920113
Si   -54.087937   155.200895     0.000000
Si   -54.087937   151.875161     1.920113
Si   -50.952405   154.092317     1.920113
Si   -53.304054   154.092317     1.920113
Si   -50.952405   150.766584     0.000000
Si   -50.952405   147.440850     1.920113
Si   -47.816874   149.658006     1.920113
Si   -50.168522   149.658006     1.920113
Si   -47.816874   146.332272     0.000000
Si   -47.816874   143.006539     1.920113
Si   -44.681342   145.223694     1.920113
Si   -47.032991   145.223694     1.920113
Si   -44.681342   141.897961     0.000000
Si   -44.681342   138.572228     1.920113
Si   -41.545811   140.789383     1.920113
Si   -43.897459   140.789383     1.920113
Si   -41.545811   137.463650     0.000000
Si   -41.545811   134.137916     1.920113
Si   -38.410279   136.355072     1.920113
Si   -40.761928   136.355072     1.920113
Si   -38.410279   133.029338     0.000000
Si   -38.410279   129.703605     1.920113
Si   -35.274747   131.920761     1.920113
Si   -37.626396   131.920761     1.920113
Si   -35.274747   128.595027     0.000000
Si   -35.274747   125.269294     1.920113
Si   -32.139216   127.486449     1.920113
Si   -34.490864   127.486449     1.920113
Si   -32.139216   124.160716     0.000000
Si   -32.139216   120.834982     1.920113
Si   -29.003684   123.052138     1.920113
Si   -31.355333   123.052138     1.920113
Si   -29.003684   119.726405     0.000000
Si   -29.003684   116.400671     1.920113
Si   -25.868153   118.617827     1.920113
Si   -28.219801   118.617827     1.920113
Si   -25.868153   115.292093     0.000000
Si   -25.868153   111.966360     1.920113
Si   -22.732621   114.183515     1.920113
Si   -25.084270   114.183515     1.920113
Si   -22.732621   110.857782     0.000000
Si   -22.732621   107.532049     1.920113
Si   -19.597089   109.749204     1.920113
Si   -21.948738   109.749204     1.920113
Si   -19.597089   106.423471     0.000000
Si   -19.597089   103.097737     1.920113
Si   -16.461558   105.314893     1.920113
Si   -18.813207   105.314893     1.920113
Si   -16.461558   101.989159     0.000000
Si   -16.461558    98.663426     1.920113
Si   -13.326026   100.880582     1.920113
Si   -15.677675   100.880582     1.920113
Si   -13.326026    97.554848     0.000000
Si   -13.326026    94.229115     1.920113
Si   -10.190495    96.446270     1.920113
Si   -12.542143    96.446270     1.920113
Si   -10.190495    93.120537     0.000000
Si   -10.190495    89.794803     1.920113
Si    -7.054963    92.011959     1.920113
Si    -9.406612    92.011959     1.920113
Si    -7.054963    88.686226     0.000000
Si    -7.054963    85.360492     1.920113
Si    -3.919432    87.577648     1.920113
Si    -6.271080    87.577648     1.920113
Si    -3.919432    84.251914     0.000000
Si    -3.919432    80.926181     1.920113
Si    -0.783900    83.143337     1.920113
Si    -3.135549    83.143337     1.920113
Si    -0.783900    79.817603     0.000000
Si    -0.783900    76.491870     1.920113
Si    -0.000017    78.709025     1.920113
Si   -53.304054   177.372451     0.000000
Si   -54.087937   175.155296     0.000000
Si   -53.304054   170.720984     0.000000
Si   -50.168522   172.938140     0.000000
Si   -53.304054   174.046718     1.920113
Si   -50.952405   170.720984     0.000000
Si   -50.168522   166.286673     0.000000
Si   -47.032991   168.503829     0.000000
Si   -50.168522   169.612407     1.920113
Si   -47.816874   166.286673     0.000000
Si   -47.032991   161.852362     0.000000
Si   -43.897459   164.069517     0.000000
Si   -47.032991   165.178095     1.920113
Si   -44.681342   161.852362     0.000000
Si   -43.897459   157.418050     0.000000
Si   -40.761928   159.635206     0.000000
Si   -43.897459   160.743784     1.920113
Si   -41.545811   157.418050     0.000000
Si   -40.761928   152.983739     0.000000
Si   -37.626396   155.200895     0.000000
Si   -40.761928   156.309473     1.920113
Si   -38.410279   152.983739     0.000000
Si   -37.626396   148.549428     0.000000
Si   -34.490864   150.766584     0.000000
Si   -37.626396   151.875161     1.920113
Si   -35.274747   148.549428     0.000000
Si   -34.490864   144.115117     0.000000
Si   -31.355333   146.332272     0.000000
Si   -34.490864   147.440850     1.920113
Si   -32.139216   144.115117     0.000000
Si   -31.355333   139.680805     0.000000
Si   -28.219801   141.897961     0.000000
Si   -31.355333   143.006539     1.920113
Si   -29.003684   139.680805     0.000000
Si   -28.219801   135.246494     0.000000
Si   -25.084270   137.463650     0.000000
Si   -28.219801   138.572228     1.920113
Si   -25.868153   135.246494     0.000000
Si   -25.084270   130.812183     0.000000
Si   -21.948738   133.029338     0.000000
Si   -25.084270   134.137916     1.920113
Si   -22.732621   130.812183     0.000000
Si   -21.948738   126.377872     0.000000
Si   -18.813207   128.595027     0.000000
Si   -21.948738   129.703605     1.920113
Si   -19.597089   126.377872     0.000000
Si   -18.813207   121.943560     0.000000
Si   -15.677675   124.160716     0.000000
Si   -18.813207   125.269294     1.920113
Si   -16.461558   121.943560     0.000000
Si   -15.677675   117.509249     0.000000
Si   -12.542143   119.726405     0.000000
Si   -15.677675   120.834982     1.920113
Si   -13.326026   117.509249     0.000000
Si   -12.542143   113.074938     0.000000
Si    -9.406612   115.292093     0.000000
Si   -12.542143   116.400671     1.920113
Si   -10.190495   113.074938     0.000000
Si    -9.406612   108.640626     0.000000
Si    -6.271080   110.857782     0.000000
Si    -9.406612   111.966360     1.920113
Si    -7.054963   108.640626     0.000000
Si    -6.271080   104.206315     0.000000
Si    -3.135549   106.423471     0.000000
Si    -6.271080   107.532049     1.920113
Si    -3.919432   104.206315     0.000000
Si    -3.135549    99.772004     0.000000
Si    -0.000017   101.989159     0.000000
Si    -3.135549   103.097737     1.920113
Si    -0.783900    99.772004     0.000000
Si    -0.000017    95.337693     0.000000
Si    -0.000017    98.663426     1.920113
Si   -54.087937   171.829562     1.920113
Si   -54.087937   168.503829     0.000000
Si   -54.087937   165.178095     1.920113
Si   -50.952405   167.395251     1.920113
Si   -53.304054   167.395251     1.920113
Si   -50.952405   164.069517     0.000000
Si   -50.952405   160.743784     1.920113
Si   -47.816874   162.960940     1.920113
Si   -50.168522   162.960940     1.920113
Si   -47.816874   159.635206     0.000000
Si   -47.816874   156.309473     1.920113
Si   -44.681342   158.526628     1.920113
Si   -47.032991   158.526628     1.920113
Si   -44.681342   155.200895     0.000000
Si   -44.681342   151.875161     1.920113
Si   -41.545811   154.092317     1.920113
Si   -43.897459   154.092317     1.920113
Si   -41.545811   150.766584     0.000000
Si   -41.545811   147.440850     1.920113
Si   -38.410279   149.658006     1.920113
Si   -40.761928   149.658006     1.920113
Si   -38.410279   146.332272     0.000000
Si   -38.410279   143.006539     1.920113
Si   -35.274747   145.223694     1.920113
Si   -37.626396   145.223694     1.920113
Si   -35.274747   141.897961     0.000000
Si   -35.274747   138.572228     1.920113
Si   -32.139216   140.789383     1.920113
Si   -34.490864   140.789383     1.920113
Si   -32.139216   137.463650     0.000000
Si   -32.139216   134.137916     1.920113
Si   -29.003684   136.355072     1.920113
Si   -31.355333   136.355072     1.920113
Si   -29.003684   133.029338     0.000000
Si   -29.003684   129.703605     1.920113
Si   -25.868153   131.920761     1.920113
Si   -28.219801   131.920761     1.920113
Si   -25.868153   128.595027     0.000000
Si   -25.868153   125.269294     1.920113
Si   -22.732621   127.486449     1.920113
Si   -25.084270   127.486449     1.920113
Si   -22.732621   124.160716     0.000000
Si   -22.732621   120.834982     1.920113
Si   -19.597089   123.052138     1.920113
Si   -21.948738   123.052138     1.920113
Si   -19.597089   119.726405     0.000000
Si   -19.597089   116.400671     1.920113
Si   -16.461558   118.617827     1.920113
Si   -18.813207   118.617827     1.920113
Si   -16.461558   115.292093     0.000000
Si   -16.461558   111.966360     1.920113
Si   -13.326026   114.183515     1.920113
Si   -15.677675   114.183515     1.920113
Si   -13.326026   110.857782     0.000000
Si   -13.326026   107.532049     1.920113
Si   -10.190495   109.749204     1.920113
Si   -12.542143   109.749204     1.920113
Si   -10.190495   106.423471     0.000000
Si   -10.190495   103.097737     1.920113
Si    -7.054963   105.314893     1.920113
Si    -9.406612   105.314893     1.920113
Si    -7.054963   101.989159     0.000000
Si    -7.054963    98.663426     1.920113
Si    -3.919432   100.880582     1.920113
Si    -6.271080   100.880582     1.920113
Si    -3.919432    97.554848     0.000000
Si    -3.919432    94.229115     1.920113
Si    -0.783900    96.446270     1.920113
Si    -3.135549    96.446270     1.920113
Si    -0.783900    93.120537     0.000000
Si    -0.783900    89.794803     1.920113
Si    -0.000017    92.011959     1.920113
Si   -53.304054   190.675385     0.000000
Si   -54.087937   188.458229     0.000000
Si   -53.304054   184.023918     0.000000
Si   -50.168522   186.241074     0.000000
Si   -53.304054   187.349652     1.920113
Si   -50.952405   184.023918     0.000000
Si   -50.168522   179.589607     0.000000
Si   -47.032991   181.806763     0.000000
Si   -50.168522   182.915340     1.920113
Si   -47.816874   179.589607     0.000000
Si   -47.032991   175.155296     0.000000
Si   -43.897459   177.372451     0.000000
Si   -47.032991   178.481029     1.920113
Si   -44.681342   175.155296     0.000000
Si   -43.897459   170.720984     0.000000
Si   -40.761928   172.938140     0.000000
Si   -43.897459   174.046718     1.920113
Si   -41.545811   170.720984     0.000000
Si   -40.761928   166.286673     0.000000
Si   -37.626396   168.503829     0.000000
Si   -40.761928   169.612407     1.920113
Si   -38.410279   166.286673     0.000000
Si   -37.626396   161.852362     0.000000
Si   -34.490864   164.069517     0.000000
Si   -37.626396   165.178095     1.920113
Si   -35.274747   161.852362     0.000000
Si   -34.490864   157.418050     0.000000
Si   -31.355333   159.635206     0.000000
Si   -34.490864   160.743784     1.920113
Si   -32.139216   157.418050     0.000000
Si   -31.355333   152.983739     0.000000
Si   -28.219801   155.200895     0.000000
Si   -31.355333   156.309473     1.920113
Si   -29.003684   152.983739     0.000000
Si   -28.219801   148.549428     0.000000
Si   -25.084270   150.766584     0.000000
Si   -28.219801   151.875161     1.920113
Si   -25.868153   148.549428     0.000000
Si   -25.084270   144.115117     0.000000
Si   -21.948738   146.332272     0.000000
Si   -25.084270   147.440850     1.920113
Si   -22.732621   144.115117     0.000000
Si   -21.948738   139.680805     0.000000
Si   -18.813207   141.897961     0.000000
Si   -21.948738   143.006539     1.920113
Si   -19.597089   139.680805     0.000000
Si   -18.813207   135.246494     0.000000
Si   -15.677675   137.463650     0.000000
Si   -18.813207   138.572228     1.920113
Si   -16.461558   135.246494     0.000000
Si   -15.677675   130.812183     0.000000
Si   -12.542143   133.029338     0.000000
Si   -15.677675   134.137916     1.920113
Si   -13.326026   130.812183     0.000000
Si   -12.542143   126.377872     0.000000
Si    -9.406612   128.595027     0.000000
Si   -12.542143   129.703605     1.920113
Si   -10.190495   126.377872     0.000000
Si    -9.406612   121.943560     0.000000
Si    -6.271080   124.160716     0.000000
Si    -9.406612   125.269294     1.920113
Si    -7.054963   121.943560     0.000000
Si    -6.271080   117.509249     0.000000
Si    -3.135549   119.726405     0.000000
Si    -6.271080   120.834982     1.920113
Si    -3.919432   117.509249     0.000000
Si    -3.135549   113.074938     0.000000
Si    -0.000017   115.292093     0.000000
Si    -3.135549   116.400671     1.920113
Si    -0.783900   113.074938     0.000000
Si    -0.000017   108.640626     0.000000
Si    -0.000017   111.966360     1.920113
Si   -54.087937   185.132496     1.920113
Si   -54.087937   181.806763     0.000000
Si   -54.087937   178.481029     1.920113
Si   -50.952405   180.698185     1.920113
Si   -53.304054   180.698185     1.920113
Si   -50.952405   177.372451     0.000000
Si   -50.952405   174.046718     1.920113
Si   -47.816874   176.263873     1.920113
Si   -50.168522   176.263873     1.920113
Si   -47.816874   172.938140     0.000000
Si   -47.816874   169.612407     1.920113
Si   -44.681342   171.829562     1.920113
Si   -47.032991   171.829562     1.920113
Si   -44.681342   168.503829     0.000000
Si   -44.681342   165.178095     1.920113
Si   -41.545811   167.395251     1.920113
Si   -43.897459   167.395251     1.920113
Si   -41.545811   164.069517     0.000000
Si   -41.545811   160.743784     1.920113
Si   -38.410279   162.960940     1.920113
Si   -40.761928   162.960940     1.920113
Si   -38.410279   159.635206     0.000000
Si   -38.410279   156.309473     1.920113
Si   -35.274747   158.526628     1.920113
Si   -37.626396   158.526628     1.920113
Si   -35.274747   155.200895     0.000000
Si   -35.274747   151.875161     1.920113
Si   -32.139216   154.092317     1.920113
Si   -34.490864   154.092317     1.920113
Si   -32.139216   150.766584     0.000000
Si   -32.139216   147.440850     1.920113
Si   -29.003684   149.658006     1.920113
Si   -31.355333   149.658006     1.920113
Si   -29.003684   146.332272     0.000000
Si   -29.003684   143.006539     1.920113
Si   -25.868153   145.223694     1.920113
Si   -28.219801   145.223694     1.920113
Si   -25.868153   141.897961     0.000000
Si   -25.868153   138.572228     1.920113
Si   -22.732621   140.789383     1.920113
Si   -25.084270   140.789383     1.920113
Si   -22.732621   137.463650     0.000000
Si   -22.732621   134.137916     1.920113
Si   -19.597089   136.355072     1.920113
Si   -21.948738   136.355072     1.920113
Si   -19.597089   133.029338     0.000000
Si   -19.597089   129.703605     1.920113
Si   -16.461558   131.920761     1.920113
Si   -18.813207   131.920761     1.920113
Si   -16.461558   128.595027     0.000000
Si   -16.461558   125.269294     1.920113
Si   -13.326026   127.486449     1.920113
Si   -15.677675   127.486449     1.920113
Si   -13.326026   124.160716     0.000000
Si   -13.326026   120.834982     1.920113
Si   -10.190495   123.052138     1.920113
Si   -12.542143   123.052138     1.920113
Si   -10.190495   119.726405     0.000000
Si   -10.190495   116.400671     1.920113
Si    -7.054963   118.617827     1.920113
Si    -9.406612   118.617827     1.920113
Si    -7.054963   115.292093     0.000000
Si    -7.054963   111.966360     1.920113
Si    -3.919432   114.183515     1.920113
Si    -6.271080   114.183515     1.920113
Si    -3.919432   110.857782     0.000000
Si    -3.919432   107.532049     1.920113
Si    -0.783900   109.749204     1.920113
Si    -3.135549   109.749204     1.920113
Si    -0.783900   106.423471     0.000000
Si    -0.783900   103.097737     1.920113
Si    -0.000017   105.314893     1.920113
Si   -53.304054   197.326852     0.000000
Si   -50.952405   197.326852     0.000000
Si   -50.168522   192.892541     0.000000
Si   -47.032991   195.109696     0.000000
Si   -50.168522   196.218274     1.920113
Si   -47.816874   192.892541     0.000000
Si   -47.032991   188.458229     0.000000
Si   -43.897459   190.675385     0.000000
Si   -47.032991   191.783963     1.920113
Si   -44.681342   188.458229     0.000000
Si   -43.897459   184.023918     0.000000
Si   -40.761928   186.241074     0.000000
Si   -43.897459   187.349652     1.920113
Si   -41.545811   184.023918     0.000000
Si   -40.761928   179.589607     0.000000
Si   -37.626396   181.806763     0.000000
Si   -40.761928   182.915340     1.920113
Si   -38.410279   179.589607     0.000000
Si   -37.626396   175.155296     0.000000
Si   -34.490864   177.372451     0.000000
Si   -37.626396   178.481029     1.920113
Si   -35.274747   175.155296     0.000000
Si   -34.490864   170.720984     0.000000
Si   -31.355333   172.938140     0.000000
Si   -34.490864   174.046718     1.920113
Si   -32.139216   170.720984     0.000000
Si   -31.355333   166.286673     0.000000
Si   -28.219801   168.503829     0.000000
Si   -31.355333   169.612407     1.920113
Si   -29.003684   166.286673     0.000000
Si   -28.219801   161.852362     0.000000
Si   -25.084270   164.069517     0.000000
Si   -28.219801   165.178095     1.920113
Si   -25.868153   161.852362     0.000000
Si   -25.084270   157.418050     0.000000
Si   -21.948738   159.635206     0.000000
Si   -25.084270   160.743784     1.920113
Si   -22.732621   157.418050     0.000000
Si   -21.948738   152.983739     0.000000
Si   -18.813207   155.200895     0.000000
Si   -21.948738   156.309473     1.920113
Si   -19.597089   152.983739     0.000000
Si   -18.813207   148.549428     0.000000
Si   -15.677675   150.766584     0.000000
Si   -18.813207   151.875161     1.920113
Si   -16.461558   148.549428     0.000000
Si   -15.677675   144.115117     0.000000
Si   -12.542143   146.332272     0.000000
Si   -15.677675   147.440850     1.920113
Si   -13.326026   144.115117     0.000000
Si   -12.542143   139.680805     0.000000
Si    -9.406612   141.897961     0.000000
Si   -12.542143   143.006539     1.920113
Si   -10.190495   139.680805     0.000000
Si    -9.406612   135.246494     0.000000
Si    -6.271080   137.463650     0.000000
Si    -9.406612   138.572228     1.920113
Si    -7.054963   135.246494     0.000000
Si    -6.271080   130.812183     0.000000
Si    -3.135549   133.029338     0.000000
Si    -6.271080   134.137916     1.920113
Si    -3.919432   130.812183     0.000000
Si    -3.135549   126.377872     0.000000
Si    -0.000017   128.595027     0.000000
Si    -3.135549   129.703605     1.920113
Si    -0.783900   126.377872     0.000000
Si    -0.000017   121.943560     0.000000
Si    -0.000017   125.269294     1.920113
Si   -54.087937   198.435430     1.920113
Si   -54.087937   195.109696     0.000000
Si   -54.087937   191.783963     1.920113
Si   -50.952405   194.001119     1.920113
Si   -53.304054   194.001119     1.920113
Si   -50.952405   190.675385     0.000000
Si   -50.952405   187.349652     1.920113
Si   -47.816874   189.566807     1.920113
Si   -50.168522   189.566807     1.920113
Si   -47.816874   186.241074     0.000000
Si   -47.816874   182.915340     1.920113
Si   -44.681342   185.132496     1.920113
Si   -47.032991   185.132496     1.920113
Si   -44.681342   181.806763     0.000000
Si   -44.681342   178.481029     1.920113
Si   -41.545811   180.698185     1.920113
Si   -43.897459   180.698185     1.920113
Si   -41.545811   177.372451     0.000000
Si   -41.545811   174.046718     1.920113
Si   -38.410279   176.263873     1.920113
Si   -40.761928   176.263873     1.920113
Si   -38.410279   172.938140     0.000000
Si   -38.410279   169.612407     1.920113
Si   -35.274747   171.829562     1.920113
Si   -37.626396   171.829562     1.920113
Si   -35.274747   168.503829     0.000000
Si   -35.274747   165.178095     1.920113
Si   -32.139216   167.395251     1.920113
Si   -34.490864   167.395251     1.920113
Si   -32.139216   164.069517     0.000000
Si   -32.139216   160.743784     1.920113
Si   -29.003684   162.960940     1.920113
Si   -31.355333   162.960940     1.920113
Si   -29.003684   159.635206     0.000000
Si   -29.003684   156.309473     1.920113
Si   -25.868153   158.526628     1.920113
Si   -28.219801   158.526628     1.920113
Si   -25.868153   155.200895     0.000000
Si   -25.868153   151.875161     1.920113
Si   -22.732621   154.092317     1.920113
Si   -25.084270   154.092317     1.920113
Si   -22.732621   150.766584     0.000000
Si   -22.732621   147.440850     1.920113
Si   -19.597089   149.658006     1.920113
Si   -21.948738   149.658006     1.920113
Si   -19.597089   146.332272     0.000000
Si   -19.597089   143.006539     1.920113
Si   -16.461558   145.223694     1.920113
Si   -18.813207   145.223694     1.920113
Si   -16.461558   141.897961     0.000000
Si   -16.461558   138.572228     1.920113
Si   -13.326026   140.789383     1.920113
Si   -15.677675   140.789383     1.920113
Si   -13.326026   137.463650     0.000000
Si   -13.326026   134.137916     1.920113
Si   -10.190495   136.355072     1.920113
Si   -12.542143   136.355072     1.920113
Si   -10.190495   133.029338     0.000000
Si   -10.190495   129.703605     1.920113
Si    -7.054963   131.920761     1.920113
Si    -9.406612   131.920761     1.920113
Si    -7.054963   128.595027     0.000000
Si    -7.054963   125.269294     1.920113
Si    -3.919432   127.486449     1.920113
Si    -6.271080   127.486449     1.920113
Si    -3.919432   124.160716     0.000000
Si    -3.919432   120.834982     1.920113
Si    -0.783900   123.052138     1.920113
Si    -3.135549   123.052138     1.920113
Si    -0.783900   119.726405     0.000000
Si    -0.783900   116.400671     1.920113
Si    -0.000017   118.617827     1.920113
Si   -43.897459   197.326852     0.000000
Si   -41.545811   197.326852     0.000000
Si   -40.761928   192.892541     0.000000
Si   -37.626396   195.109696     0.000000
Si   -40.761928   196.218274     1.920113
Si   -38.410279   192.892541     0.000000
Si   -37.626396   188.458229     0.000000
Si   -34.490864   190.675385     0.000000
Si   -37.626396   191.783963     1.920113
Si   -35.274747   188.458229     0.000000
Si   -34.490864   184.023918     0.000000
Si   -31.355333   186.241074     0.000000
Si   -34.490864   187.349652     1.920113
Si   -32.139216   184.023918     0.000000
Si   -31.355333   179.589607     0.000000
Si   -28.219801   181.806763     0.000000
Si   -31.355333   182.915340     1.920113
Si   -29.003684   179.589607     0.000000
Si   -28.219801   175.155296     0.000000
Si   -25.084270   177.372451     0.000000
Si   -28.219801   178.481029     1.920113
Si   -25.868153   175.155296     0.000000
Si   -25.084270   170.720984     0.000000
Si   -21.948738   172.938140     0.000000
Si   -25.084270   174.046718     1.920113
Si   -22.732621   170.720984     0.000000
Si   -21.948738   166.286673     0.000000
Si   -18.813207   168.503829     0.000000
Si   -21.948738   169.612407     1.920113
Si   -19.597089   166.286673     0.000000
Si   -18.813207   161.852362     0.000000
Si   -15.677675   164.069517     0.000000
Si   -18.813207   165.178095     1.920113
Si   -16.461558   161.852362     0.000000
Si   -15.677675   157.418050     0.000000
Si   -12.542143   159.635206     0.000000
Si   -15.677675   160.743784     1.920113
Si   -13.326026   157.418050     0.000000
Si   -12.542143   152.983739     0.000000
Si    -9.406612   155.200895     0.000000
Si   -12.542143   156.309473     1.920113
Si   -10.190495   152.983739     0.000000
Si    -9.406612   148.549428     0.000000
Si    -6.271080   150.766584     0.000000
Si    -9.406612   151.875161     1.920113
Si    -7.054963   148.549428     0.000000
Si    -6.271080   144.115117     0.000000
Si    -3.135549   146.332272     0.000000
Si    -6.271080   147.440850     1.920113
Si    -3.919432   144.115117     0.000000
Si    -3.135549   139.680805     0.000000
Si    -0.000017   141.897961     0.000000
Si    -3.135549   143.006539     1.920113
Si    -0.783900   139.680805     0.000000
Si    -0.000017   135.246494     0.000000
Si    -0.000017   138.572228     1.920113
Si   -47.816874   196.218274     1.920113
Si   -44.681342   198.435430     1.920113
Si   -47.032991   198.435430     1.920113
Si   -44.681342   195.109696     0.000000
Si   -44.681342   191.783963     1.920113
Si   -41.545811   194.001119     1.920113
Si   -43.897459   194.001119     1.920113
Si   -41.545811   190.675385     0.000000
Si   -41.545811   187.349652     1.920113
Si   -38.410279   189.566807     1.920113
Si   -40.761928   189.566807     1.920113
Si   -38.410279   186.241074     0.000000
Si   -38.410279   182.915340     1.920113
Si   -35.274747   185.132496     1.920113
Si   -37.626396   185.132496     1.920113
Si   -35.274747   181.806763     0.000000
Si   -35.274747   178.481029     1.920113
Si   -32.139216   180.698185     1.920113
Si   -34.490864   180.698185     1.920113
Si   -32.139216   177.372451     0.000000
Si   -32.139216   174.046718     1.920113
Si   -29.003684   176.263873     1.920113
Si   -31.355333   176.263873     1.920113
Si   -29.003684   172.938140     0.000000
Si   -29.003684   169.612407     1.920113
Si   -25.868153   171.829562     1.920113
Si   -28.219801   171.829562     1.920113
Si   -25.868153   168.503829     0.000000
Si   -25.868153   165.178095     1.920113
Si   -22.732621   167.395251     1.920113
Si   -25.084270   167.395251     1.920113
Si   -22.732621   164.069517     0.000000
Si   -22.732621   160.743784     1.920113
Si   -19.597089   162.960940     1.920113
Si   -21.948738   162.960940     1.920113
Si   -19.597089   159.635206     0.000000
Si   -19.597089   156.309473     1.920113
Si   -16.461558   158.526628     1.920113
Si   -18.813207   158.526628     1.920113
Si   -16.461558   155.200895     0.000000
Si   -16.461558   151.875161     1.920113
Si   -13.326026   154.092317     1.920113
Si   -15.677675   154.092317     1.920113
Si   -13.326026   150.766584     0.000000
Si   -13.326026   147.440850     1.920113
Si   -10.190495   149.658006     1.920113
Si   -12.542143   149.658006     1.920113
Si   -10.190495   146.332272     0.000000
Si   -10.190495   143.006539     1.920113
Si    -7.054963   145.223694     1.920113
Si    -9.406612   145.223694     1.920113
Si    -7.054963   141.897961     0.000000
Si    -7.054963   138.572228     1.920113
Si    -3.919432   140.789383     1.920113
Si    -6.271080   140.789383     1.920113
Si    -3.919432   137.463650     0.000000
Si    -3.919432   134.137916     1.920113
Si    -0.783900   136.355072     1.920113
Si    -3.135549   136.355072     1.920113
Si    -0.783900   133.029338     0.000000
Si    -0.783900   129.703605     1.920113
Si    -0.000017   131.920761     1.920113
Si   -34.490864   197.326852     0.000000
Si   -32.139216   197.326852     0.000000
Si   -31.355333   192.892541     0.000000
Si   -28.219801   195.109696     0.000000
Si   -31.355333   196.218274     1.920113
Si   -29.003684   192.892541     0.000000
Si   -28.219801   188.458229     0.000000
Si   -25.084270   190.675385     0.000000
Si   -28.219801   191.783963     1.920113
Si   -25.868153   188.458229     0.000000
Si   -25.084270   184.023918     0.000000
Si   -21.948738   186.241074     0.000000
Si   -25.084270   187.349652     1.920113
Si   -22.732621   184.023918     0.000000
Si   -21.948738   179.589607     0.000000
Si   -18.813207   181.806763     0.000000
Si   -21.948738   182.915340     1.920113
Si   -19.597089   179.589607     0.000000
Si   -18.813207   175.155296     0.000000
Si   -15.677675   177.372451     0.000000
Si   -18.813207   178.481029     1.920113
Si   -16.461558   175.155296     0.000000
Si   -15.677675   170.720984     0.000000
Si   -12.542143   172.938140     0.000000
Si   -15.677675   174.046718     1.920113
Si   -13.326026   170.720984     0.000000
Si   -12.542143   166.286673     0.000000
Si    -9.406612   168.503829     0.000000
Si   -12.542143   169.612407     1.920113
Si   -10.190495   166.286673     0.000000
Si    -9.406612   161.852362     0.000000
Si    -6.271080   164.069517     0.000000
Si    -9.406612   165.178095     1.920113
Si    -7.054963   161.852362     0.000000
Si    -6.271080   157.418050     0.000000
Si    -3.135549   159.635206     0.000000
Si    -6.271080   160.743784     1.920113
Si    -3.919432   157.418050     0.000000
Si    -3.135549   152.983739     0.000000
Si    -0.000017   155.200895     0.000000
Si    -3.135549   156.309473     1.920113
Si    -0.783900   152.983739     0.000000
Si    -0.000017   148.549428     0.000000
Si    -0.000017   151.875161     1.920113
Si   -38.410279   196.218274     1.920113
Si   -35.274747   198.435430     1.920113
Si   -37.626396   198.435430     1.920113
Si   -35.274747   195.109696     0.000000
Si   -35.274747   191.783963     1.920113
Si   -32.139216   194.001119     1.920113
Si   -34.490864   194.001119     1.920113
Si   -32.139216   190.675385     0.000000
Si   -32.139216   187.349652     1.920113
Si   -29.003684   189.566807     1.920113
Si   -31.355333   189.566807     1.920113
Si   -29.003684   186.241074     0.000000
Si   -29.003684   182.915340     1.920113
Si   -25.868153   185.132496     1.920113
Si   -28.219801   185.132496     1.920113
Si   -25.868153   181.806763     0.000000
Si   -25.868153   178.481029     1.920113
Si   -22.732621   180.698185     1.920113
Si   -25.084270   180.698185     1.920113
Si   -22.732621   177.372451     0.000000
Si   -22.732621   174.046718     1.920113
Si   -19.597089   176.263873     1.920113
Si   -21.948738   176.263873     1.920113
Si   -19.597089   172.938140     0.000000
Si   -19.597089   169.612407     1.920113
Si   -16.461558   171.829562     1.920113
Si   -18.813207   171.829562     1.920113
Si   -16.461558   168.503829     0.000000
Si   -16.461558   165.178095     1.920113
Si   -13.326026   167.395251     1.920113
Si   -15.677675   167.395251     1.920113
Si   -13.326026   164.069517     0.000000
Si   -13.326026   160.743784     1.920113
Si   -10.190495   162.960940     1.920113
Si   -12.542143   162.960940     1.920113
Si   -10.190495   159.635206     0.000000
Si   -10.190495   156.309473     1.920113
Si    -7.054963   158.526628     1.920113
Si    -9.406612   158.526628     1.920113
Si    -7.054963   155.200895     0.000000
Si    -7.054963   151.875161     1.920113
Si    -3.919432   154.092317     1.920113
Si    -6.271080   154.092317     1.920113
Si    -3.919432   150.766584     0.000000
Si    -3.919432   147.440850     1.920113
Si    -0.783900   149.658006     1.920113
Si    -3.135549   149.658006     1.920113
Si    -0.783900   146.332272     0.000000
Si    -0.783900   143.006539     1.920113
Si    -0.000017   145.223694     1.920113
Si   -25.084270   197.326852     0.000000
Si   -22.732621   197.326852     0.000000
Si   -21.948738   192.892541     0.000000
Si   -18.813207   195.109696     0.000000
Si   -21.948738   196.218274     1.920113
Si   -19.597089   192.892541     0.000000
Si   -18.813207   188.458229     0.000000
Si   -15.677675   190.675385     0.000000
Si   -18.813207   191.783963     1.920113
Si   -16.461558   188.458229     0.000000
Si   -15.677675   184.023918     0.000000
Si   -12.542143   186.241074     0.000000
Si   -15.677675   187.349652     1.920113
Si   -13.326026   184.023918     0.000000
Si   -12.542143   179.589607     0.000000
Si    -9.406612   181.806763     0.000000
Si   -12.542143   182.915340     1.920113
Si   -10.190495   179.589607     0.000000
Si    -9.406612   175.155296     0.000000
Si    -6.271080   177.372451     0.000000
Si    -9.406612   178.481029     1.920113
Si    -7.054963   175.155296     0.000000
Si    -6.271080   170.720984     0.000000
Si    -3.135549   172.938140     0.000000
Si    -6.271080   174.046718     1.920113
Si    -3.919432   170.720984     0.000000
Si    -3.135549   166.286673     0.000000
Si    -0.000017   168.503829     0.000000
Si    -3.135549   169.612407     1.920113
Si    -0.783900   166.286673     0.000000
Si    -0.000017   161.852362     0.000000
Si    -0.000017   165.178095     1.920113
Si   -29.003684   196.218274     1.920113
Si   -25.868153   198.435430     1.920113
Si   -28.219801   198.435430     1.920113
Si   -25.868153   195.109696     0.000000
Si   -25.868153   191.783963     1.920113
Si   -22.732621   194.001119     1.920113
Si   -25.084270   194.001119     1.920113
Si   -22.732621   190.675385     0.000000
Si   -22.732621   187.349652     1.920113
Si   -19.597089   189.566807     1.920113
Si   -21.948738   189.566807     1.920113
Si   -19.597089   186.241074     0.000000
Si   -19.597089   182.915340     1.920113
Si   -16.461558   185.132496     1.920113
Si   -18.813207   185.132496     1.920113
Si   -16.461558   181.806763     0.000000
Si   -16.461558   178.481029     1.920113
Si   -13.326026   180.698185     1.920113
Si   -15.677675   180.698185     1.920113
Si   -13.326026   177.372451     0.000000
Si   -13.326026   174.046718     1.920113
Si   -10.190495   176.263873     1.920113
Si   -12.542143   176.263873     1.920113
Si   -10.190495   172.938140     0.000000
Si   -10.190495   169.612407     1.920113
Si    -7.054963   171.829562     1.920113
Si    -9.406612   171.829562     1.920113
Si    -7.054963   168.503829     0.000000
Si    -7.054963   165.178095     1.920113
Si    -3.919432   167.395251     1.920113
Si    -6.271080   167.395251     1.920113
Si    -3.919432   164.069517     0.000000
Si    -3.919432   160.743784     1.920113
Si    -0.783900   162.960940     1.920113
Si    -3.135549   162.960940     1.920113
Si    -0.783900   159.635206     0.000000
Si    -0.783900   156.309473     1.920113
Si    -0.000017   158.526628     1.920113
Si   -15.677675   197.326852     0.000000
Si   -13.326026   197.326852     0.000000
Si   -12.542143   192.892541     0.000000
Si    -9.406612   195.109696     0.000000
Si   -12.542143   196.218274     1.920113
Si   -10.190495   192.892541     0.000000
Si    -9.406612   188.458229     0.000000
Si    -6.271080   190.675385     0.000000
Si    -9.406612   191.783963     1.920113
Si    -7.054963   188.458229     0.000000
Si    -6.271080   184.023918     0.000000
Si    -3.135549   186.241074     0.000000
Si    -6.271080   187.349652     1.920113
Si    -3.919432   184.023918     0.000000
Si    -3.135549   179.589607     0.000000
Si    -0.000017   181.806763     0.000000
Si    -3.135549   182.915340     1.920113
Si    -0.783900   179.589607     0.000000
Si    -0.000017   175.155296     0.000000
Si    -0.000017   178.481029     1.920113
Si   -19.597089   196.218274     1.920113
Si   -16.461558   198.435430     1.920113
Si   -18.813207   198.435430     1.920113
Si   -16.461558   195.109696     0.000000
Si   -16.461558   191.783963     1.920113
Si   -13.326026   194.001119     1.920113
Si   -15.677675   194.001119     1.920113
Si   -13.326026   190.675385     0.000000
Si   -13.326026   187.349652     1.920113
Si   -10.190495   189.566807     1.920113
Si   -12.542143   189.566807     1.920113
Si   -10.190495   186.241074     0.000000
Si   -10.190495   182.915340     1.920113
Si    -7.054963   185.132496     1.920113
Si    -9.406612   185.132496     1.920113
Si    -7.054963   181.806763     0.000000
Si    -7.054963   178.481029     1.920113
Si    -3.919432   180.698185     1.920113
Si    -6.271080   180.698185     1.920113
Si    -3.919432   177.372451     0.000000
Si    -3.919432   174.046718     1.920113
Si    -0.783900   176.263873     1.920113
Si    -3.135549   176.263873     1.920113
Si    -0.783900   172.938140     0.000000
Si    -0.783900   169.612407     1.920113
Si    -0.000017   171.829562     1.920113
Si    -6.271080   197.326852     0.000000
Si    -3.919432   197.326852     0.000000
Si    -3.135549   192.892541     0.000000
Si    -0.000017   195.109696     0.000000
Si    -3.135549   196.218274     1.920113
Si    -0.783900   192.892541     0.000000
Si    -0.000017   188.458229     0.000000
Si    -0.000017   191.783963     1.920113
Si   -10.190495   196.218274     1.920113
Si    -7.054963   198.435430     1.920113
Si    -9.406612   198.435430     1.920113
Si    -7.054963   195.109696     0.000000
Si    -7.054963   191.783963     1.920113
Si    -3.919432   194.001119     1.920113
Si    -6.271080   194.001119     1.920113
Si    -3.919432   190.675385     0.000000
Si    -3.919432   187.349652     1.920113
Si    -0.783900   189.566807     1.920113
Si    -3.135549   189.566807     1.920113
Si    -0.783900   186.241074     0.000000
Si    -0.783900   182.915340     1.920113
Si    -0.000017   185.132496     1.920113
Si    -0.783900   196.218274     1.920113
Si    -0.000017   198.435430     1.920113
